80
p11_b-scission_ts
P        -1.759864        0.287860       -0.162084
C        -0.583297        0.946375        1.116686
C         0.052197       -0.130018        2.012464
C         0.516920        1.800907        0.459073
H        -1.194602        1.600959        1.764392
C         1.010541        0.483416        3.036780
H         0.593174       -0.853534        1.382820
H        -0.721993       -0.702139        2.544598
C         1.447074        2.426064        1.497391
H         1.102492        1.156142       -0.212772
H         0.078387        2.582169       -0.178263
C         2.080281        1.355013        2.381406
H         1.478030       -0.320201        3.627590
H         0.429375        1.096556        3.749317
H         2.227975        3.011689        0.986374
H         0.880237        3.137613        2.125282
H         2.722670        1.814914        3.149714
H         2.731695        0.720122        1.757809
C        -2.523351       -1.244676        0.531292
C        -3.458473       -1.038046        1.726939
C        -3.165208       -2.155827       -0.528224
H        -1.635097       -1.799168        0.876988
C        -3.838447       -2.384783        2.347684
H        -4.378536       -0.522748        1.399471
H        -2.991853       -0.388951        2.486554
C        -3.539710       -3.500362        0.096373
H        -4.068542       -1.684629       -0.950669
H        -2.463552       -2.316014       -1.358239
C        -4.453870       -3.324437        1.309706
H        -4.534133       -2.230308        3.187774
H        -2.931389       -2.852059        2.770028
H        -4.023320       -4.141472       -0.657184
H        -2.610843       -4.013998        0.397661
H        -4.676945       -4.301299        1.767032
H        -5.421924       -2.907325        0.977179
C        -3.170360        1.598230       -0.097612
C        -4.301203        1.209427       -1.054776
C        -2.644215        3.003455       -0.408231
H        -3.548013        1.579293        0.942052
C        -5.412133        2.260356       -1.104122
H        -4.730577        0.239065       -0.767335
H        -3.879702        1.073865       -2.068352
C        -3.765440        4.044095       -0.458173
H        -1.899819        3.311276        0.341222
H        -2.121074        2.983339       -1.382333
C        -4.863801        3.644867       -1.440695
H        -5.915839        2.298757       -0.121784
H        -6.177750        1.957814       -1.835962
H        -4.203088        4.152009        0.550291
H        -3.346839        5.027903       -0.723546
H        -4.450078        3.633828       -2.464946
H        -5.673433        4.391461       -1.437760
N        -0.668025       -0.336188       -1.346179
S         0.470371       -1.879241       -1.488931
H        -1.030417       -0.296012       -2.298692
C         2.117885       -1.291339       -1.131571
C         2.784169       -1.737912        0.002352
C         2.668475       -0.286640       -1.927936
C         4.002901       -1.158512        0.354735
H         2.337580       -2.529304        0.607192
C         3.873554        0.289998       -1.553654
H         2.140603        0.051881       -2.821733
C         4.560840       -0.119084       -0.396633
H         4.505247       -1.523108        1.250554
H         4.283138        1.088959       -2.175642
C         5.853203        0.598854        0.012004
C         6.467974        0.002435        1.284282
H         7.392028        0.543493        1.537952
H         5.788485        0.088562        2.146026
H         6.730408       -1.058521        1.153975
C         5.528684        2.080673        0.281913
H         6.437168        2.623016        0.588057
H         5.125316        2.580874       -0.611011
H         4.784047        2.176834        1.087229
C         6.885889        0.489377       -1.124235
H         7.122389       -0.563864       -1.339181
H         6.524587        0.949692       -2.055491
H         7.820007        0.999953       -0.841922
O         0.395013       -2.287982       -2.895703
O         0.124495       -2.828965       -0.420073
