68
p162_tbp_radical
P         1.752968       -0.020537       -0.496884
C         0.474144       -1.294035       -0.135061
C         0.538171       -2.100050        1.012306
C        -1.446381       -3.297913        0.333649
C        -0.552384       -1.536186       -1.054862
C        -0.418057       -3.085071        1.249797
H         1.344720       -1.971818        1.735981
C        -1.504825       -2.524921       -0.823503
H        -0.352430       -3.693815        2.154148
H        -2.301411       -2.683394       -1.553174
H        -2.193863       -4.073031        0.517899
H        -0.614130       -0.932777       -1.959118
C         1.774815        1.202622        0.868708
C         1.216337        0.967776        2.128614
C         2.007028        3.114969        2.904913
C         2.438337        2.413451        0.637027
H         0.664639        0.048067        2.327506
C         2.561352        3.359071        1.649721
C         1.328478        1.921427        3.140235
H         2.093838        3.861557        3.697286
H         3.075210        4.301168        1.449574
H         0.878152        1.728872        4.116483
H         2.836458        2.630891       -0.356039
C         3.357179       -1.026919        0.020450
C         4.600393       -0.148453       -0.122959
C         3.472140       -2.291515       -0.830171
H         3.232613       -1.292886        1.086529
C         5.879996       -0.929420        0.188963
H         4.530887        0.729882        0.536276
H         4.652634        0.235339       -1.158974
C         4.753927       -3.069197       -0.520277
H         2.594873       -2.940317       -0.684790
H         3.472455       -2.000633       -1.897291
C         5.994677       -2.189463       -0.667744
H         5.877066       -1.214222        1.256229
H         6.758417       -0.281171        0.041916
H         4.701465       -3.453515        0.514095
H         4.824797       -3.950805       -1.177091
H         6.108023       -1.898081       -1.727366
H         6.901187       -2.755230       -0.400482
N         0.781752        1.065967       -1.691357
S        -0.396576        2.244066       -1.623256
H         0.991640        0.875571       -2.668310
C        -1.824888        1.415961       -0.950057
C        -1.926072        1.229050        0.422789
C        -2.797204        0.911329       -1.809372
C        -2.989406        0.489133        0.935176
H        -1.172307        1.658536        1.085184
C        -3.862137        0.193108       -1.279232
H        -2.711479        1.090758       -2.882711
C        -3.974700       -0.049620        0.099344
H        -3.039108        0.341367        2.013586
H        -4.623615       -0.187621       -1.963600
C        -5.168394       -0.850982        0.636611
C        -5.057299       -1.108744        2.144658
H        -4.139493       -1.663534        2.393925
H        -5.065173       -0.173233        2.723983
H        -5.914586       -1.710587        2.482305
C        -5.244023       -2.213931       -0.074744
H        -6.104507       -2.790897        0.298720
H        -5.364569       -2.108792       -1.162842
H        -4.332251       -2.800396        0.111119
C        -6.459387       -0.055739        0.366973
H        -6.424659        0.927111        0.861093
H        -6.614498        0.114873       -0.708777
H        -7.335123       -0.602863        0.750682
O        -0.685249        2.589768       -3.011172
O        -0.025794        3.273037       -0.666430
