68
p162_tet_radical
P         1.425722        0.214347       -0.019459
C         0.195992        0.805106        1.009532
C        -0.081200        0.256989        2.319804
C        -2.014784        1.718581        2.572290
C        -0.735913        1.793256        0.503000
C        -1.144629        0.718257        3.061989
H         0.555408       -0.527236        2.735252
C        -1.785511        2.232127        1.278956
H        -1.314261        0.295370        4.056057
H        -2.454435        2.997253        0.874919
H        -2.842541        2.085803        3.181091
H        -0.604527        2.201442       -0.503089
C         2.332919        1.548503       -0.868319
C         2.359246        2.813871       -0.267556
C         3.878770        3.602713       -1.972261
C         3.099099        1.316885       -2.020600
H         1.771939        2.989533        0.636737
C         3.869224        2.341962       -2.566923
C         3.121779        3.837420       -0.824330
H         4.480802        4.405297       -2.403757
H         4.465124        2.152402       -3.462062
H         3.127147        4.823549       -0.355705
H         3.102192        0.331488       -2.491469
C         2.601357       -0.871103        0.866913
C         3.559743       -1.625188       -0.065041
C         3.375580       -0.073243        1.929934
H         1.957723       -1.620863        1.358054
C         4.483114       -2.537807        0.743512
H         4.170889       -0.898643       -0.628830
H         2.988141       -2.215415       -0.792610
C         4.302085       -0.992328        2.728309
H         3.976237        0.704053        1.425213
H         2.683100        0.451927        2.604259
C         5.252140       -1.765655        1.814823
H         5.180025       -3.051525        0.063349
H         3.875026       -3.325682        1.221074
H         4.868304       -0.398681        3.462738
H         3.689381       -1.705806        3.307307
H         5.878467       -2.451486        2.406494
H         5.941536       -1.054464        1.325395
N         0.941605       -0.671048       -1.463091
S        -0.022579       -2.039333       -1.433862
H         0.818653       -0.137070       -2.321681
C        -1.637443       -1.457234       -0.995708
C        -2.043180       -1.501461        0.331017
C        -2.451342       -0.891255       -1.976894
C        -3.267279       -0.942638        0.686757
H        -1.399295       -1.951675        1.086101
C        -3.669156       -0.341606       -1.601984
H        -2.134408       -0.892148       -3.021628
C        -4.097637       -0.341314       -0.263350
H        -3.549066       -0.962679        1.737934
H        -4.299707        0.100729       -2.376176
C        -5.436831        0.308451        0.105944
C        -5.696073        0.267427        1.617044
H        -5.769077       -0.764646        1.992477
H        -4.900798        0.784486        2.175311
H        -6.649369        0.768648        1.843159
C        -6.575329       -0.440171       -0.610872
H        -7.548150        0.008288       -0.354469
H        -6.467191       -0.400416       -1.705095
H        -6.597341       -1.499587       -0.312922
C        -5.422423        1.782432       -0.338552
H        -6.371667        2.270929       -0.068054
H        -4.602186        2.326305        0.152403
H        -5.294084        1.885370       -1.426152
O         0.483041       -2.854130       -0.339210
O        -0.055755       -2.519778       -2.802155
