68
p162_b-scission_ts
P        -1.582473        0.337705        0.052532
C        -0.826581        1.922901        0.187563
C        -1.521426        3.125649        0.484944
C         0.495551        4.418735        0.102493
C         0.559172        2.007153       -0.124219
C        -0.864910        4.344420        0.438779
H        -2.577141        3.103946        0.762786
C         1.195520        3.239942       -0.170804
H        -1.417271        5.256999        0.675161
H         2.258679        3.277742       -0.419039
H         1.002328        5.384681        0.065774
H         1.132182        1.100352       -0.323803
C        -0.896287       -0.783466        1.319237
C        -0.100059       -0.255116        2.341562
C         0.176492       -2.462997        3.279392
C        -1.162162       -2.158874        1.290889
H         0.111329        0.816034        2.367491
C        -0.628952       -2.992386        2.271166
C         0.441169       -1.094430        3.313516
H         0.600005       -3.120811        4.041784
H        -0.833745       -4.064201        2.235743
H         1.072683       -0.675905        4.099973
H        -1.745339       -2.592792        0.479000
C        -3.398872        0.496365        0.353809
C        -4.084981       -0.838151        0.677020
C        -4.059603        1.160832       -0.867343
H        -3.500101        1.158438        1.233466
C        -5.592326       -0.654282        0.867626
H        -3.901577       -1.546446       -0.150524
H        -3.650821       -1.284323        1.583022
C        -5.563634        1.345068       -0.662958
H        -3.887156        0.513946       -1.745403
H        -3.582488        2.126873       -1.091809
C        -6.246262        0.017790       -0.338214
H        -6.059246       -1.631833        1.064576
H        -5.767099       -0.037594        1.767252
H        -6.006475        1.798154       -1.563413
H        -5.734041        2.058342        0.163213
H        -7.320933        0.172081       -0.154384
H        -6.169725       -0.651637       -1.213171
N        -1.177277       -0.440520       -1.384143
S        -0.057856       -1.816294       -2.042682
H        -1.345828        0.138437       -2.207309
C         1.542889       -1.369886       -1.464485
C         1.969473       -1.805175       -0.208929
C         2.262288       -0.390690       -2.159307
C         3.105770       -1.239015        0.358804
H         1.407405       -2.575346        0.321064
C         3.400649        0.150097       -1.578148
H         1.921359       -0.065647       -3.143747
C         3.837215       -0.240068       -0.299463
H         3.412421       -1.590879        1.343408
H         3.954127        0.909915       -2.134415
C         5.075520        0.421950        0.317589
C         5.377825       -0.115711        1.722023
H         4.542523        0.064075        2.416145
H         5.592572       -1.195079        1.710611
H         6.264064        0.392775        2.130726
C         4.836468        1.939454        0.425174
H         5.709699        2.434565        0.878444
H         4.670663        2.398355       -0.561134
H         3.956037        2.153446        1.050543
C         6.296877        0.151542       -0.580492
H         6.481196       -0.929282       -0.676808
H         6.160212        0.560578       -1.592414
H         7.198451        0.616640       -0.151399
O        -0.145219       -1.591559       -3.483175
O        -0.455552       -3.089160       -1.449429
