99
p25_tet_radical
P         1.571721       -1.247873        0.162761
C         0.684648       -2.830299        0.254117
C        -0.345900       -2.933526        1.197306
C         0.953646       -3.897239       -0.607033
C        -0.844627       -5.156036        0.402921
H         0.390565       -5.886138       -1.212285
H        -1.904389       -4.175414        2.013249
H        -1.443139       -6.068185        0.458272
C        -1.105278       -4.097055        1.273339
C         0.184195       -5.056461       -0.533605
H         1.754406       -3.821139       -1.343973
H        -0.537834       -2.096394        1.872538
C         1.747199       -0.612548        1.764865
C         2.301138       -1.559525        2.724233
C         3.059946        0.246450        4.165420
C         1.832780        0.802323        2.119458
C         2.473127        1.178662        3.280547
C         2.927074       -1.128186        3.870746
H         2.213484       -2.633840        2.537575
H         3.313133       -1.873139        4.572131
H         2.483712        2.243231        3.534816
H         3.561318        0.581134        5.074034
C         1.103087        1.808144        1.293841
C         3.136504       -1.514746       -0.759469
C         3.202420       -1.642697       -2.154388
C         5.617260       -1.667139       -2.042606
C         4.322370       -1.456458       -0.014381
H         2.287175       -1.676734       -2.748022
C         5.556751       -1.537365       -0.656014
C         4.440035       -1.718925       -2.788715
H         6.585618       -1.720911       -2.545134
H         4.482721       -1.811440       -3.875973
H         6.475038       -1.486720       -0.067478
H         4.278811       -1.325701        1.069894
N         0.643962       -0.212429       -0.817627
S        -0.282768       -0.493736       -2.171325
H         0.718717        0.785384       -0.599740
C        -1.944241       -0.547364       -1.564698
C        -2.676617        0.630688       -1.481153
C        -2.481140       -1.761768       -1.142083
C        -3.957651        0.593898       -0.936696
H        -2.244910        1.569011       -1.831211
C        -3.756071       -1.773361       -0.593247
H        -1.903204       -2.682162       -1.240986
C        -4.517362       -0.599536       -0.466109
H        -4.513547        1.528728       -0.872655
H        -4.162394       -2.728288       -0.253949
C        -5.905246       -0.664548        0.183188
C        -6.575235        0.713208        0.254563
H        -7.562393        0.620162        0.731439
H        -5.985376        1.424048        0.853382
H        -6.731369        1.146592       -0.745023
C        -5.758280       -1.205133        1.618057
H        -6.741950       -1.250183        2.111019
H        -5.331088       -2.218655        1.633849
H        -5.103019       -0.554394        2.216448
C        -6.806875       -1.603781       -0.638680
H        -6.403431       -2.626116       -0.683014
H        -7.809815       -1.660586       -0.187493
H        -6.916094       -1.239526       -1.671581
O         0.060156       -1.815534       -2.673711
O        -0.138175        0.688568       -2.999528
C        -0.278973        1.996645        1.505328
C         1.750191        2.477279        0.232741
C        -0.367935        3.507168       -0.414028
C         1.003853        3.322602       -0.595052
C        -0.983979        2.846025        0.650313
H        -2.059480        2.983064        0.801263
H         1.504199        3.821807       -1.427254
C        -1.177291        4.404489       -1.333647
C        -1.008267        5.877233       -0.941913
H        -1.289118        6.045425        0.108444
H        -1.631695        6.527804       -1.575140
H         0.040978        6.191173       -1.062311
C        -0.857974        4.178864       -2.814540
H        -2.238496        4.141380       -1.176709
H        -0.886168        3.111556       -3.080262
H         0.146784        4.551455       -3.068834
H        -1.574785        4.721719       -3.449605
C        -1.007042        1.282459        2.633716
C        -2.210839        0.479843        2.135282
H        -3.017891        1.130276        1.761691
H        -2.629937       -0.129950        2.951477
H        -1.928187       -0.195733        1.313560
C        -1.402249        2.271141        3.734934
H        -0.299187        0.567934        3.075388
H        -2.105875        3.031252        3.357582
H        -0.517454        2.794774        4.126200
H        -1.887484        1.747911        4.573773
C         3.225606        2.235020       -0.051003
C         3.520476        2.021120       -1.539126
H         4.539337        1.625072       -1.670653
H         3.453957        2.959378       -2.112811
H         2.819771        1.303693       -1.991575
C         4.085745        3.355655        0.540911
H         3.502554        1.308839        0.474925
H         5.154994        3.163276        0.361035
H         3.930660        3.437187        1.626676
H         3.832785        4.327348        0.086262
