99
p25_b-scission_ts
C        -2.254647       -2.030516        0.224333
C        -2.948792       -1.922485       -0.983516
C        -4.259970       -1.465726       -0.972129
C        -4.911508       -1.108681        0.221656
C        -4.177607       -1.202481        1.410954
C        -2.859531       -1.654800        1.421917
H        -2.466393       -2.230935       -1.912521
H        -4.797163       -1.411431       -1.921840
H        -4.636379       -0.936377        2.363061
H        -2.309632       -1.754281        2.359742
S        -0.562510       -2.576280        0.222745
O        -0.347052       -3.386042       -0.976509
O        -0.252214       -3.139021        1.540867
N         0.468449       -1.030191        0.018802
C        -6.386901       -0.685652        0.186090
C        -6.567929        0.528458       -0.742104
H        -7.633309        0.798421       -0.811713
H        -6.022468        1.402725       -0.358558
H        -6.208601        0.328366       -1.762239
C        -7.222173       -1.866456       -0.345369
H        -7.096475       -2.754153        0.292991
H        -8.291500       -1.602642       -0.361102
H        -6.930958       -2.144875       -1.368936
C        -6.914515       -0.308882        1.576159
H        -6.869291       -1.156935        2.275997
H        -6.352001        0.529989        2.013562
H        -7.967765        0.001044        1.501450
P         2.122335       -0.569378        0.178663
C         3.098180        0.675185       -0.799787
C         2.429489        1.848725       -1.204393
C         4.424700        0.457452       -1.194773
C         3.127775        2.800445       -1.953564
C         5.104431        1.414525       -1.944513
H         4.932138       -0.467251       -0.909237
C         4.457109        2.592164       -2.315790
H         2.608463        3.707622       -2.271766
C         2.510330       -0.215638        1.904512
C         1.738199       -0.841791        2.898965
C         3.539344        0.661748        2.282776
C         1.979147       -0.564694        4.241790
H         0.962033       -1.558178        2.615927
C         3.771111        0.931093        3.628830
H         4.162380        1.137204        1.522628
C         2.989640        0.324188        4.611910
H         1.373971       -1.055571        5.007020
H         4.570495        1.619805        3.911053
C         2.928775       -2.135982       -0.267838
C         3.897249       -2.713670        0.558471
C         2.599248       -2.744287       -1.484645
C         4.539044       -3.887675        0.166411
H         4.148054       -2.249317        1.515041
C         3.242808       -3.915601       -1.872197
H         1.823066       -2.314472       -2.119969
C         4.213479       -4.486590       -1.049114
H         5.290429       -4.338752        0.817790
H         2.974804       -4.391533       -2.817335
H         4.712929       -5.409013       -1.353805
H         3.173596        0.537399        5.667111
H        -0.159214       -0.233164        0.138893
H         6.141442        1.239542       -2.239179
H         4.984459        3.345305       -2.905253
C         0.969031        2.024772       -0.914183
C         0.535151        2.672389        0.257750
C        -0.835470        2.733855        0.527045
C        -1.781637        2.177792       -0.331880
C        -1.326855        1.564425       -1.501754
C         0.028732        1.474010       -1.813996
H        -2.063619        1.119543       -2.175779
H        -1.168280        3.223278        1.443168
C        -3.273459        2.255827       -0.064486
C        -3.886555        3.435358       -0.830149
H        -3.462020        4.388399       -0.475955
H        -4.978137        3.477002       -0.687932
H        -3.685497        3.359745       -1.909052
C        -3.635271        2.315999        1.418103
H        -3.706531        1.326461       -0.470040
H        -4.724171        2.216217        1.547079
H        -3.343700        3.275854        1.873412
H        -3.152027        1.505065        1.982354
C         1.523127        3.329086        1.210017
C         1.169533        3.133151        2.685572
H         0.270508        3.701077        2.972778
H         1.994152        3.487942        3.321890
H         0.997452        2.072404        2.921095
C         1.675738        4.817092        0.870383
H         2.501750        2.855109        1.045613
H         0.716707        5.345540        0.993354
H         2.005196        4.958326       -0.169424
H         2.415873        5.295271        1.530879
C         0.466786        0.787977       -3.101105
C        -0.301559       -0.501333       -3.400532
H        -0.257942       -1.197036       -2.550346
H         0.136094       -1.003833       -4.276891
H        -1.360009       -0.308151       -3.637521
C         0.387796        1.773034       -4.273866
H         1.523259        0.505213       -2.984782
H        -0.650521        2.105088       -4.434948
H         0.744308        1.303976       -5.204081
H         1.000739        2.667078       -4.085767
