99
p25_tbp_radical
C         2.511723        1.803822        0.080027
C         3.037413        1.256692       -1.089722
C         4.328573        0.746101       -1.080085
C         5.124237        0.775123        0.076676
C         4.576278        1.358271        1.225675
C         3.278165        1.868305        1.236352
H         2.435870        1.245039       -2.000541
H         4.726347        0.323289       -2.005171
H         5.158564        1.416122        2.145064
H         2.854731        2.317778        2.136408
S         0.819298        2.377109        0.083492
O         0.567105        2.943463       -1.240732
O         0.603918        3.220483        1.256649
N         0.007942        0.964794        0.336686
C         6.549816        0.208152        0.029859
C         6.526289       -1.229439       -0.521901
H         7.547171       -1.640953       -0.550715
H         5.912348       -1.887540        0.111069
H         6.124576       -1.277005       -1.544396
C         7.401559        1.098264       -0.894695
H         7.432169        2.133647       -0.522728
H         8.435102        0.720725       -0.947156
H         6.998558        1.121238       -1.918260
C         7.202761        0.175763        1.417451
H         7.319779        1.184281        1.841566
H         6.620056       -0.432207        2.126813
H         8.207543       -0.267045        1.344805
P        -1.967785        0.672530        0.161900
C        -3.285661       -0.372791       -0.670788
C        -2.844020       -1.636692       -1.113227
C        -4.593133        0.043904       -0.946450
C        -3.736539       -2.471046       -1.791758
C        -5.470953       -0.797271       -1.628058
H        -4.927036        1.032947       -0.622570
C        -5.043395       -2.057373       -2.044887
H        -3.392482       -3.446932       -2.142548
C        -2.298795        0.413152        1.938373
C        -1.367105        0.824668        2.903995
C        -3.494635       -0.184646        2.363777
C        -1.625924        0.626634        4.258490
H        -0.442727        1.306375        2.586584
C        -3.742909       -0.387149        3.719248
H        -4.241079       -0.503854        1.635390
C        -2.808326        0.014684        4.671355
H        -0.891120        0.954885        4.996643
H        -4.675440       -0.862973        4.030150
C        -2.476576        2.364040       -0.259132
C        -2.566034        3.369537        0.706512
C        -2.679760        2.682280       -1.608902
C        -2.870763        4.675867        0.326875
H        -2.386758        3.140662        1.758258
C        -2.989110        3.984279       -1.982774
H        -2.586764        1.907316       -2.373833
C        -3.084621        4.984033       -1.013696
H        -2.932791        5.456989        1.086978
H        -3.141862        4.224162       -3.036873
H        -3.318035        6.009476       -1.308461
H        -3.002883       -0.145736        5.734075
H         0.416686        0.228080       -0.243653
H        -6.491533       -0.467254       -1.834390
H        -5.727662       -2.717284       -2.582611
C        -1.408864       -2.017008       -0.901280
C        -1.011575       -2.691917        0.271931
C         0.349952       -2.882614        0.506733
C         1.327860       -2.424510       -0.377179
C         0.908574       -1.811539       -1.558312
C        -0.444294       -1.596101       -1.840827
H         1.666223       -1.463466       -2.265394
H         0.660843       -3.379217        1.427906
C         2.801605       -2.556891       -0.040344
C         3.269694       -4.014069       -0.094271
H         2.748726       -4.625243        0.660163
H         4.350514       -4.084599        0.105973
H         3.074066       -4.460194       -1.080749
C         3.110679       -1.911569        1.313737
H         3.359895       -1.993990       -0.806998
H         4.194433       -1.898473        1.505889
H         2.635458       -2.463477        2.140012
H         2.748403       -0.874234        1.346225
C        -2.039721       -3.221127        1.260862
C        -1.600208       -3.110759        2.721925
H        -0.791220       -3.818574        2.962986
H        -2.444397       -3.345351        3.387602
H        -1.253022       -2.095391        2.962861
C        -2.417290       -4.665326        0.907009
H        -2.946733       -2.608568        1.148607
H        -1.537647       -5.325185        0.976867
H        -2.810452       -4.738224       -0.117369
H        -3.186707       -5.047829        1.595673
C        -0.848978       -0.915497       -3.141543
C        -0.005186        0.316170       -3.479329
H         0.003258        1.055931       -2.664286
H        -0.410052        0.815449       -4.372942
H         1.038018        0.047686       -3.712602
C        -0.841928       -1.934545       -4.287504
H        -1.886664       -0.569436       -3.025566
H         0.171836       -2.335034       -4.449224
H        -1.178356       -1.469335       -5.227045
H        -1.506761       -2.783452       -4.068165
