89
p60_tbp_radical
C        -2.430235       -1.419486       -1.016093
C        -2.996220       -0.538632       -1.937295
C        -4.208721        0.065688       -1.643325
C        -4.893832       -0.201381       -0.444369
C        -4.312583       -1.108965        0.443997
C        -3.086988       -1.716657        0.167439
H        -2.484255       -0.326153       -2.877835
H        -4.633674        0.760201       -2.371487
H        -4.805350       -1.353762        1.384799
H        -2.629538       -2.412203        0.871915
S        -0.875637       -2.208460       -1.396523
O        -1.030346       -2.870768       -2.690592
O        -0.513686       -2.998710       -0.222332
N         0.208012       -0.991976       -1.609073
C        -6.230824        0.498168       -0.165542
C        -6.012351        2.022265       -0.154150
H        -6.962348        2.545613        0.037396
H        -5.300590        2.309105        0.634935
H        -5.616563        2.388645       -1.112803
C        -7.236254        0.128713       -1.271820
H        -7.397230       -0.959482       -1.306568
H        -8.207277        0.613950       -1.084831
H        -6.889472        0.448537       -2.265408
C        -6.828170        0.087685        1.186055
H        -7.036139       -0.992109        1.229941
H        -6.160996        0.345468        2.022181
H        -7.780589        0.615142        1.346856
P         1.392181        0.060571       -0.420841
C         2.342412        1.712084       -0.410966
C         2.142616        2.863251        0.397305
C         3.289826        1.796839       -1.471709
C         2.897345        4.016744        0.135197
C         4.019033        2.966912       -1.674022
C         3.838675        4.100523       -0.882728
H         2.739774        4.888738        0.777496
C        -0.037841        0.292899        0.713122
C        -0.985723        1.252970        0.273991
C        -0.292329       -0.447506        1.890501
C        -2.085499        1.544113        1.080066
C        -1.405750       -0.098078        2.663867
C        -2.298298        0.905156        2.298163
H        -2.807943        2.286536        0.730810
H        -1.594248       -0.664994        3.580367
C         2.696448       -1.124280        0.171904
C         3.422948       -0.821216        1.356401
C         3.064260       -2.287457       -0.561402
C         4.418484       -1.691278        1.805431
C         4.067609       -3.120536       -0.051418
C         4.749611       -2.860737        1.131093
H         4.951500       -1.438685        2.726330
H         4.330619       -4.014209       -0.623504
H         0.484777       -0.976152       -2.586597
H         4.747862        2.996141       -2.489473
C         5.788860       -3.808933        1.663393
H         6.290461       -4.353821        0.851061
H         5.323859       -4.558059        2.324552
H         6.553803       -3.280419        2.250023
C         3.210355        0.401114        2.211675
H         2.158386        0.686385        2.293709
H         3.751788        1.267723        1.804851
H         3.583467        0.217465        3.228573
C         2.510275       -2.737797       -1.893104
H         2.396426       -1.916711       -2.608145
H         1.537372       -3.231715       -1.786173
H         3.200953       -3.464041       -2.341720
C         4.623448        5.358852       -1.139542
H         5.702365        5.149300       -1.197993
H         4.463227        6.103751       -0.347668
H         4.328909        5.817402       -2.096937
C         3.557104        0.658373       -2.425370
H         4.200564        0.991025       -3.250958
H         2.624217        0.274757       -2.866682
H         4.057987       -0.186621       -1.930190
C         1.186841        3.013073        1.562827
H         0.882664        2.077795        2.034888
H         0.260204        3.513904        1.241755
H         1.647521        3.648160        2.332844
C        -0.871964        1.990036       -1.037890
H        -0.635591        1.296116       -1.855776
H        -0.084281        2.758133       -1.020558
H        -1.823186        2.485485       -1.274636
C        -3.476262        1.243486        3.170447
H        -4.177600        1.916624        2.657958
H        -3.150662        1.740648        4.097740
H        -4.026085        0.335963        3.463470
C         0.512472       -1.631751        2.370659
H         0.839808       -2.263519        1.539448
H        -0.116617       -2.252642        3.022641
H         1.392701       -1.332484        2.956557
