89
p60_b-scission_ts
C        -2.424552       -1.444092       -1.207441
C        -2.995403       -0.494759       -2.054604
C        -4.192398        0.102567       -1.687317
C        -4.849535       -0.235079       -0.490816
C        -4.256260       -1.203647        0.324768
C        -3.046175       -1.802909       -0.018938
H        -2.503083       -0.234002       -2.993343
H        -4.627841        0.847990       -2.356612
H        -4.728833       -1.501817        1.260390
H        -2.578874       -2.546594        0.627703
S        -0.856138       -2.160462       -1.635594
O        -0.870652       -2.519107       -3.058420
O        -0.557995       -3.179100       -0.618302
N         0.441051       -0.750093       -1.535437
C        -6.169698        0.458833       -0.129566
C        -5.921678        1.971407        0.016545
H        -6.860916        2.493768        0.257516
H        -5.203806        2.172622        0.826374
H        -5.519991        2.413688       -0.907133
C        -7.198614        0.208907       -1.247603
H        -7.378135       -0.868785       -1.380492
H        -8.158229        0.688736       -0.998548
H        -6.864310        0.615319       -2.213310
C        -6.755402       -0.061872        1.188846
H        -6.976224       -1.138979        1.140691
H        -6.075615        0.114174        2.035864
H        -7.698910        0.460619        1.407781
P         1.378643       -0.002035       -0.308354
C         2.186838        1.711845       -0.355403
C         1.926192        2.843731        0.464011
C         3.066177        1.881638       -1.466383
C         2.506280        4.076651        0.130269
C         3.625576        3.128652       -1.735183
C         3.348012        4.254367       -0.959372
H         2.294267        4.933924        0.777351
C        -0.057953        0.129739        0.840361
C        -1.049557        1.088218        0.506061
C        -0.265327       -0.731748        1.941755
C        -2.132815        1.264966        1.367714
C        -1.371657       -0.504974        2.767939
C        -2.298508        0.504981        2.521382
H        -2.885005        2.014884        1.109835
H        -1.523133       -1.167594        3.625072
C         2.791337       -1.066672        0.247315
C         3.546020       -0.680099        1.386139
C         3.234102       -2.198252       -0.498861
C         4.696645       -1.392420        1.739790
C         4.390051       -2.868958       -0.089346
C         5.145346       -2.489273        1.017215
H         5.252831       -1.073431        2.625733
H         4.714698       -3.734362       -0.673397
H         0.865333       -0.816215       -2.458776
H         4.300369        3.225651       -2.590804
C         6.390723       -3.241721        1.399328
H         7.170567       -3.123126        0.630645
H         6.188447       -4.319366        1.493933
H         6.801565       -2.885476        2.354085
C         3.184951        0.456289        2.306638
H         2.104291        0.545578        2.457295
H         3.544815        1.420048        1.918277
H         3.642225        0.299687        3.293230
C         2.576437       -2.772984       -1.730637
H         2.499747       -2.044961       -2.548278
H         1.573374       -3.157144       -1.513928
H         3.177247       -3.611178       -2.106253
C         3.934012        5.597478       -1.301521
H         5.007832        5.518278       -1.528404
H         3.810140        6.314054       -0.477462
H         3.443826        6.023698       -2.191657
C         3.445880        0.758687       -2.402328
H         4.112895        1.130840       -3.191532
H         2.564563        0.325779       -2.898129
H         3.967621       -0.058026       -1.883155
C         1.100000        2.896746        1.734690
H         0.796808        1.929560        2.133365
H         0.177322        3.475162        1.571928
H         1.674259        3.418106        2.515045
C        -1.020101        1.951861       -0.733561
H        -0.639604        1.396970       -1.599282
H        -0.385983        2.841271       -0.606290
H        -2.037651        2.294265       -0.965605
C        -3.468313        0.719892        3.442829
H        -4.165913        1.468107        3.040850
H        -3.133734        1.068540        4.432333
H        -4.025530       -0.216687        3.600322
C         0.588255       -1.938695        2.249704
H         0.746389       -2.542919        1.346979
H         0.075588       -2.572297        2.985858
H         1.571345       -1.679945        2.664087
