62
p61_tet_radical
P         1.398067        0.103065        0.025749
C         0.104349        0.233385       -1.087391
C        -0.797509        1.359283       -0.957573
C        -0.280348       -0.813975       -2.003184
C        -2.237467        0.436466       -2.646123
H        -1.700131       -1.486004       -3.470424
H        -2.600370        2.308806       -1.642337
F        -3.370010        0.515534       -3.375912
C        -1.930762        1.452535       -1.739680
C        -1.417477       -0.698142       -2.769471
H         0.332766       -1.712688       -2.092692
H        -0.595037        2.145429       -0.226174
C         2.522445       -1.241893       -0.380729
C         3.021361       -1.311481       -1.691815
C         4.358258       -3.199049       -1.078032
C         2.971086       -2.158613        0.577417
C         3.892428       -3.142078        0.229218
C         3.933547       -2.296228       -2.048820
H         2.692115       -0.587471       -2.440752
H         4.328391       -2.369374       -3.062915
H         4.245578       -3.871386        0.959268
F         5.236933       -4.138139       -1.413157
H         2.576738       -2.126731        1.592302
C         2.371183        1.642644        0.154932
C         2.259000        2.619508       -0.843125
C         4.032636        3.868673        0.175207
C         3.354028        1.787591        1.146250
H         1.520452        2.498643       -1.638590
C         4.187949        2.901463        1.161616
C         3.078652        3.742935       -0.829446
F         4.822747        4.937148        0.186840
H         2.994590        4.519159       -1.591226
H         4.958806        3.027753        1.923045
H         3.483819        1.018956        1.912219
N         1.017675       -0.027694        1.738154
S        -0.094991       -1.070155        2.449363
H         1.127773        0.815987        2.298429
C        -1.664900       -0.700260        1.715311
C        -2.136500       -1.497293        0.680445
C        -2.410967        0.380597        2.184396
C        -3.368805       -1.204020        0.103552
H        -1.543309       -2.341868        0.329125
C        -3.636685        0.656506        1.594193
H        -2.041961        0.983883        3.015955
C        -4.145036       -0.127682        0.544115
H        -3.713045       -1.835706       -0.713851
H        -4.216340        1.501174        1.972519
C        -5.519997        0.196054       -0.055525
C        -5.890700       -0.761099       -1.195624
H        -5.166533       -0.701206       -2.021254
H        -5.954215       -1.804906       -0.852057
H        -6.876914       -0.486848       -1.599517
C        -5.517691        1.627300       -0.622348
H        -6.524674        1.891714       -0.981163
H        -5.225751        2.373753        0.131299
H        -4.827208        1.702017       -1.473941
C        -6.581594        0.076618        1.054079
H        -6.585061       -0.935115        1.487785
H        -6.406175        0.792673        1.870781
H        -7.583888        0.277138        0.644196
O        -0.120865       -0.662450        3.842369
O         0.272715       -2.417145        2.047109
