62
p61_tbp_radical
C        -2.035156        0.257729       -1.786083
C        -2.826115        1.388180       -1.587607
C        -3.992074        1.274632       -0.843204
C        -4.397990        0.048117       -0.287382
C        -3.592691       -1.069158       -0.527268
C        -2.417680       -0.972510       -1.271967
H        -2.523723        2.347043       -2.013070
H        -4.601681        2.168340       -0.692014
H        -3.865510       -2.043599       -0.123388
H        -1.787396       -1.845554       -1.445114
S        -0.494301        0.402078       -2.671554
O        -0.696706        1.247235       -3.839985
O         0.013818       -0.961226       -2.833812
N         0.453841        1.239739       -1.601959
C        -5.687530       -0.023193        0.541597
C        -5.576901        0.933566        1.743301
H        -6.513077        0.925047        2.323221
H        -4.763333        0.619805        2.413625
H        -5.389388        1.971588        1.430602
C        -6.876766        0.389308       -0.345103
H        -6.963632       -0.274608       -1.218675
H        -7.816987        0.330592        0.225440
H        -6.775088        1.420255       -0.715254
C        -5.946456       -1.434597        1.083740
H        -6.072401       -2.169246        0.273937
H        -5.129285       -1.770193        1.739554
H        -6.871924       -1.437813        1.679071
P         1.603943        0.075849       -0.440963
C         2.574459        1.489727        0.180648
C         2.444341        1.997790        1.477518
C         3.527372        2.056273       -0.677469
C         3.242014        3.054585        1.911482
C         4.329357        3.112719       -0.258290
C         4.172468        3.598952        1.035204
H         3.151501        3.461034        2.919845
C         0.272277       -0.262200        0.756672
C        -0.649010        0.748931        1.078006
C         0.096423       -1.533067        1.318863
C        -1.713068        0.503735        1.935000
C        -0.981568       -1.798278        2.160546
C        -1.872321       -0.775348        2.453190
H        -2.435494        1.283823        2.176850
H        -1.137231       -2.789117        2.589258
C         2.782849       -1.342027       -0.143592
C         3.828358       -1.333046        0.789208
C         2.616595       -2.458450       -0.975581
C         4.678867       -2.429247        0.909054
C         3.454103       -3.564966       -0.856706
C         4.474954       -3.532147        0.086188
H         5.497246       -2.442846        1.630760
H         3.337122       -4.443245       -1.493384
H         0.976401        1.942197       -2.129817
H         5.073842        3.562724       -0.916480
H         3.654280        1.663474       -1.690291
H         1.715490        1.565274        2.165968
H         1.822588       -2.449436       -1.729067
H         3.984200       -0.465539        1.434858
H         0.799029       -2.336655        1.093476
H        -0.543302        1.734978        0.624624
F         4.934929        4.609071        1.443954
F         5.286700       -4.581797        0.200808
F        -2.917297       -1.029677        3.245132
