74
p68_tbp_radical
P         1.889160        0.190084       -0.278322
C         2.665118       -1.284568        0.479953
C         2.825611       -2.462450       -0.255330
C         3.212017       -1.211969        1.768283
C         4.051750       -3.465199        1.569314
C         3.894327       -2.296495        2.313428
C         3.519148       -3.543358        0.284619
H         2.397730       -2.540876       -1.255185
H         4.588262       -4.316629        1.993751
H         3.633553       -4.456450       -0.302880
H         4.304674       -2.227483        3.323161
H         3.103921       -0.301244        2.363224
C         0.734967        0.970600        0.954122
C        -0.265269        1.890257        0.229283
C         0.001606       -0.017569        1.871452
H         1.384478        1.602530        1.587166
C        -1.193630        2.607371        1.208934
H        -0.869160        1.273841       -0.452857
H         0.264324        2.623734       -0.397805
C        -0.938452        0.705451        2.837700
H        -0.575336       -0.725883        1.263236
H         0.719177       -0.630415        2.434267
C        -1.926294        1.610318        2.103213
H        -1.915347        3.222948        0.648520
H        -0.605597        3.302908        1.835059
H        -1.477466       -0.037386        3.446662
H        -0.342253        1.313891        3.542080
H        -2.572040        2.139324        2.822697
H        -2.588306        0.988615        1.477075
C         3.432271        1.382198       -0.121106
C         3.087434        2.817546       -0.518400
C         4.580059        0.831103       -0.968644
H         3.723828        1.362695        0.945858
C         4.319517        3.727246       -0.486255
H         2.313030        3.230733        0.146467
H         2.660837        2.817208       -1.538763
C         5.807247        1.744077       -0.930048
H         4.851637       -0.181526       -0.632813
H         4.234424        0.732643       -2.014727
C         5.455235        3.172113       -1.344202
H         4.668045        3.823529        0.557525
H         4.043912        4.741071       -0.817842
H         6.219248        1.753009        0.094796
H         6.597581        1.336820       -1.580319
H         5.144427        3.176092       -2.404400
H         6.340871        3.823390       -1.275723
N         0.569499       -0.706317       -1.356685
S        -0.492842       -1.971110       -1.278483
H         0.699199       -0.457789       -2.334266
C        -2.090000       -1.231723       -0.940947
C        -2.835489       -1.675589        0.141896
C        -2.577975       -0.214341       -1.760019
C        -4.059559       -1.070607        0.431177
H        -2.442470       -2.478411        0.767828
C        -3.791081        0.385471       -1.454139
H        -1.999244        0.122492       -2.622609
C        -4.553785       -0.017444       -0.343864
H        -4.617543       -1.429122        1.295882
H        -4.147007        1.195499       -2.094404
C        -5.857149        0.720165       -0.012735
C        -6.556642        0.131982        1.218828
H        -5.928886        0.205346        2.120009
H        -7.485521        0.687418        1.417816
H        -6.827838       -0.924324        1.070131
C        -6.819906        0.625732       -1.210153
H        -6.394711        1.079444       -2.117432
H        -7.059406       -0.423815       -1.439323
H        -7.761334        1.151281       -0.985606
C        -5.527927        2.197212        0.276872
H        -5.070474        2.692964       -0.592193
H        -6.444607        2.751266        0.533463
H        -4.826462        2.283416        1.120978
O        -0.181703       -2.800598       -0.121442
O        -0.560730       -2.554055       -2.613629
