74
p68_b-scission_ts
P         1.860736        0.175807       -0.122604
C         2.826846       -1.247965        0.496540
C         2.883976       -2.436521       -0.235905
C         3.546621       -1.154993        1.696996
C         4.372673       -3.403436        1.404837
C         4.313358       -2.225135        2.149507
C         3.656495       -3.505911        0.214588
H         2.309392       -2.534766       -1.156388
H         4.974136       -4.244174        1.757482
H         3.689235       -4.427926       -0.369213
H         4.864635       -2.139857        3.088451
H         3.503978       -0.242815        2.298070
C         0.698671        0.667148        1.230731
C        -0.416570        1.591327        0.710727
C         0.090582       -0.533314        1.974013
H         1.319694        1.236132        1.947832
C        -1.329996        2.057800        1.844002
H        -1.010841        1.037008       -0.030452
H         0.002184        2.458639        0.180950
C        -0.847020       -0.077525        3.094327
H        -0.458206       -1.163354        1.256977
H         0.883003       -1.172414        2.389190
C        -1.934460        0.871270        2.590981
H        -2.126947        2.698398        1.433670
H        -0.753934        2.684961        2.548655
H        -1.299419       -0.958802        3.575760
H        -0.252714        0.432547        3.874208
H        -2.557097        1.220004        3.430753
H        -2.601780        0.324417        1.904619
C         3.222279        1.540662       -0.050323
C         2.661918        2.939610       -0.313670
C         4.318129        1.177102       -1.057195
H         3.643587        1.512115        0.971575
C         3.769725        3.994291       -0.389079
H         1.946634        3.221622        0.473806
H         2.097898        2.930003       -1.265042
C         5.418020        2.237712       -1.119242
H         4.750668        0.194949       -0.810604
H         3.858789        1.073410       -2.058340
C         4.841868        3.622147       -1.411450
H         4.238644        4.094147        0.606080
H         3.332070        4.976776       -0.627349
H         5.953229        2.261786       -0.153330
H         6.162577        1.959698       -1.881798
H         4.396761        3.624143       -2.422594
H         5.641797        4.379125       -1.420416
N         0.783269       -0.451313       -1.318661
S        -0.460880       -1.869206       -1.633585
H         1.130095       -0.319420       -2.268688
C        -2.062280       -1.195462       -1.223565
C        -2.791995       -1.742027       -0.176629
C        -2.524130       -0.065557       -1.898456
C        -3.986411       -1.137441        0.214447
H        -2.413312       -2.630220        0.332511
C        -3.704435        0.534307       -1.483551
H        -1.947721        0.348866       -2.727865
C        -4.455307        0.022953       -0.409745
H        -4.540452       -1.582341        1.040661
H        -4.043766        1.431301       -2.006147
C        -5.715813        0.762587        0.055711
C        -6.423450        0.032532        1.204062
H        -5.780140       -0.052426        2.093175
H        -7.322738        0.593010        1.500843
H        -6.744428       -0.978472        0.910194
C        -6.703295        0.893505       -1.117733
H        -6.275212        1.461038       -1.956897
H        -6.996511       -0.097541       -1.496249
H        -7.614497        1.419543       -0.792428
C        -5.305975        2.162040        0.553018
H        -4.826579        2.754163       -0.240711
H        -6.189371        2.720159        0.901298
H        -4.596453        2.085007        1.391477
O        -0.218688       -2.977527       -0.704650
O        -0.392173       -2.078636       -3.083394
