99
L00025_lec_smd.log
P          1.57170       -1.24790        0.16280
C          0.68460       -2.83030        0.25410
C         -0.34590       -2.93350        1.19730
C          0.95360       -3.89720       -0.60700
C         -0.84460       -5.15600        0.40290
H          0.39050       -5.88610       -1.21230
H         -1.90440       -4.17540        2.01330
H         -1.44320       -6.06820        0.45830
C         -1.10530       -4.09700        1.27340
C          0.18420       -5.05650       -0.53360
H          1.75440       -3.82110       -1.34400
H         -0.53780       -2.09640        1.87260
C          1.74720       -0.61250        1.76490
C          2.30120       -1.55950        2.72420
C          3.05990        0.24650        4.16540
C          1.83280        0.80230        2.11950
C          2.47310        1.17870        3.28060
C          2.92710       -1.12820        3.87070
H          2.21350       -2.63380        2.53760
H          3.31320       -1.87310        4.57210
H          2.48370        2.24320        3.53480
H          3.56130        0.58110        5.07400
C          1.10310        1.80810        1.29380
C          3.13650       -1.51480       -0.75950
C          3.20240       -1.64270       -2.15440
C          5.61730       -1.66720       -2.04260
C          4.32240       -1.45650       -0.01440
H          2.28720       -1.67680       -2.74800
C          5.55680       -1.53740       -0.65600
C          4.44000       -1.71900       -2.78870
H          6.58560       -1.72090       -2.54520
H          4.48270       -1.81150       -3.87600
H          6.47500       -1.48670       -0.06750
H          4.27880       -1.32570        1.06990
N          0.64400       -0.21240       -0.81760
S         -0.28280       -0.49370       -2.17130
H          0.71870        0.78540       -0.59970
C         -1.94420       -0.54740       -1.56470
C         -2.67660        0.63070       -1.48120
C         -2.48110       -1.76180       -1.14210
C         -3.95770        0.59390       -0.93670
H         -2.24490        1.56900       -1.83120
C         -3.75610       -1.77340       -0.59320
H         -1.90320       -2.68220       -1.24100
C         -4.51740       -0.59950       -0.46610
H         -4.51360        1.52870       -0.87270
H         -4.16240       -2.72830       -0.25390
C         -5.90520       -0.66450        0.18320
C         -6.57520        0.71320        0.25460
H         -7.56240        0.62020        0.73140
H         -5.98540        1.42410        0.85340
H         -6.73140        1.14660       -0.74500
C         -5.75830       -1.20510        1.61810
H         -6.74200       -1.25020        2.11100
H         -5.33110       -2.21870        1.63390
H         -5.10300       -0.55440        2.21650
C         -6.80690       -1.60380       -0.63870
H         -6.40340       -2.62610       -0.68300
H         -7.80980       -1.66060       -0.18750
H         -6.91610       -1.23950       -1.67160
O          0.06020       -1.81550       -2.67370
O         -0.13820        0.68860       -2.99950
C         -0.27900        1.99670        1.50530
C          1.75020        2.47730        0.23270
C         -0.36790        3.50720       -0.41400
C          1.00390        3.32260       -0.59510
C         -0.98400        2.84600        0.65030
H         -2.05950        2.98310        0.80130
H          1.50420        3.82180       -1.42730
C         -1.17730        4.40450       -1.33370
C         -1.00820        5.87720       -0.94190
H         -1.28910        6.04540        0.10840
H         -1.63170        6.52780       -1.57520
H          0.04100        6.19120       -1.06230
C         -0.85800        4.17880       -2.81460
H         -2.23850        4.14140       -1.17670
H         -0.88620        3.11150       -3.08030
H          0.14680        4.55140       -3.06890
H         -1.57480        4.72170       -3.44960
C         -1.00710        1.28250        2.63370
C         -2.21090        0.47990        2.13530
H         -3.01790        1.13030        1.76170
H         -2.63000       -0.12990        2.95150
H         -1.92820       -0.19570        1.31360
C         -1.40230        2.27120        3.73490
H         -0.29920        0.56790        3.07540
H         -2.10590        3.03130        3.35760
H         -0.51750        2.79480        4.12620
H         -1.88750        1.74790        4.57380
C          3.22560        2.23500       -0.05100
C          3.52050        2.02110       -1.53910
H          4.53940        1.62510       -1.67060
H          3.45400        2.95940       -2.11280
H          2.81980        1.30370       -1.99160
C          4.08570        3.35560        0.54090
H          3.50260        1.30880        0.47490
H          5.15500        3.16330        0.36110
H          3.93070        3.43720        1.62670
H          3.83280        4.32730        0.08630
