71
L00009_lec.log
P          1.33860       -0.14560        0.00800
C          3.03560       -0.86170       -0.03120
C          4.18570       -0.18590        0.44160
C          3.17130       -2.07560       -0.72050
C          5.55160       -2.02500       -0.41130
H          4.49800       -3.61650       -1.43210
H          6.32690       -0.29770        0.60640
H          6.53920       -2.47140       -0.54590
C          5.42840       -0.80150        0.24090
C          4.41660       -2.66570       -0.90210
H          2.28100       -2.55110       -1.13950
C          4.15770        1.17590        1.09140
C          1.45720        1.49080       -0.76820
C          1.85830        1.62830       -2.11830
C          1.66120        4.04960       -1.87140
C          1.20620        2.62680        0.01180
C          1.30230        3.90270       -0.53530
C          1.93860        2.92380       -2.64250
C          2.23280        0.46120       -2.99520
H          2.23740        3.04870       -3.68620
H          1.10070        4.77540        0.08860
H          1.73820        5.04420       -2.31630
H          0.95500        2.52630        1.06900
C          0.08090       -1.09780       -0.66980
C         -0.23210       -2.43640       -0.17590
C         -1.94780       -2.66300       -1.91940
C         -0.73690       -0.57150       -1.73740
C          0.43960       -3.03680        1.03480
C         -1.69530       -1.34350       -2.34850
C         -1.21690       -3.16160       -0.82960
H         -2.69890       -3.28100       -2.41390
H         -1.44020       -4.16780       -0.46080
H         -2.27150       -0.91770       -3.17400
H         -0.59770        0.46100       -2.06400
N          1.22250        0.04140        1.73060
S         -0.04140        0.53980        2.74040
H          1.87960       -0.51770        2.27540
C         -1.50290        0.40490        1.75400
C         -2.19230       -0.80230        1.70960
C         -1.97590        1.52440        1.06990
C         -3.34260       -0.89780        0.93310
H         -1.83460       -1.66170        2.27640
C         -3.12850        1.40810        0.30640
H         -1.45210        2.47740        1.14500
C         -3.83190        0.19630        0.21200
H         -3.85080       -1.85970        0.89120
H         -3.48860        2.29210       -0.22220
C         -5.11620        0.11870       -0.62250
C         -5.56430       -1.33210       -0.84460
H         -4.76750       -1.92700       -1.31700
H         -5.85250       -1.82380        0.09670
H         -6.44540       -1.35170       -1.50350
C         -4.89580        0.76680       -2.00060
H         -5.80600        0.66840       -2.61210
H         -4.66780        1.83990       -1.92720
H         -4.06730        0.27850       -2.53260
C         -6.22570        0.87750        0.12990
H         -7.16820        0.84300       -0.43950
H         -6.40590        0.43120        1.11980
H         -5.95880        1.93460        0.28080
O          0.15820        1.94700        3.05570
O         -0.05910       -0.44380        3.81180
H          1.53140       -3.13700        0.92370
H          0.04430       -4.04420        1.22620
H          0.27380       -2.44320        1.94840
H          2.39110        0.79410       -4.02980
H          1.45910       -0.31970       -3.00220
H          3.16690       -0.00470       -2.64530
H          4.03340        1.96070        0.32840
H          5.10210        1.36970        1.61750
H          3.33290        1.29670        1.80470
