55
L00081_lec.log
P          2.17640        0.25500        0.65960
C          3.45780       -0.46790       -0.38310
C          5.29660       -1.98500       -1.87480
C          4.70600       -0.82590        0.16530
C          3.14690       -0.89110       -1.69190
H          3.80730       -1.96110       -3.43760
H          6.01180       -2.57340       -2.45270
H          6.58410       -1.82160       -0.14410
H          2.19330       -0.61220       -2.14630
C          4.06130       -1.64400       -2.42370
C          5.61490       -1.56620       -0.57820
H          4.97080       -0.52360        1.18130
C          0.81010       -0.70040        1.12100
C          0.42360       -0.89150        2.48700
C          0.10840       -1.45100        0.11860
C         -1.24480       -2.53090        1.82180
C         -0.88080       -2.34510        0.47850
H          0.90530       -0.31840        3.28240
C         -0.58080       -1.78210        2.81230
H         -0.86540       -1.89830        3.86130
H         -2.02800       -3.24090        2.09340
H         -1.39390       -2.90700       -0.30600
H          0.33980       -1.30760       -0.93870
C          2.93210        1.06190        2.08640
H          2.18950        1.74850        2.51570
H          3.25250        0.32560        2.83570
H          3.79530        1.64790        1.74350
N          1.60710        1.46720       -0.43720
S          0.38500        2.57450       -0.09080
H          2.23080        1.81730       -1.16430
C         -1.10950        1.64270       -0.24680
C         -1.78190        1.23570        0.89750
C         -1.57350        1.29820       -1.51510
C         -2.92680        0.45450        0.76990
H         -1.39970        1.51070        1.88030
C         -2.71910        0.52210       -1.62050
H         -1.04470        1.64170       -2.40610
C         -3.41540        0.07530       -0.48410
H         -3.42370        0.12680        1.68150
H         -3.07840        0.25950       -2.61770
C         -4.67290       -0.78690       -0.65250
C         -5.22460       -1.26660        0.69600
H         -4.47730       -1.85440        1.25090
H         -5.54670       -0.42730        1.33070
H         -6.10280       -1.90860        0.52980
C         -4.33970       -2.02780       -1.50040
H         -5.23790       -2.65180       -1.62850
H         -3.97660       -1.76110       -2.50360
H         -3.56680       -2.63800       -1.01070
C         -5.75540        0.04850       -1.36090
H         -6.00470        0.94610       -0.77480
H         -5.42820        0.37830       -2.35830
H         -6.67480       -0.54470       -1.48810
O          0.47360        3.54510       -1.16710
O          0.51610        2.98010        1.30140
