62
L000133_lec.log
C          1.54580        0.83910        1.56200
C          2.01490        1.68050        0.55810
C          3.26710        1.43840        0.00890
C          4.06530        0.36660        0.43590
C          3.56260       -0.45450        1.45470
C          2.31480       -0.22290        2.02470
H          1.39610        2.50730        0.20870
H          3.62310        2.10400       -0.77940
H          4.14730       -1.29740        1.82100
H          1.93860       -0.86650        2.82230
S         -0.07600        1.09270        2.22030
O         -0.56810        2.36040        1.70930
O         -0.08090        0.79820        3.64180
N         -0.98990       -0.16730        1.55490
C          5.45130        0.15490       -0.18700
C          5.33290        0.07830       -1.71980
H          6.33000       -0.05720       -2.16690
H          4.70180       -0.77110       -2.01500
H          4.89890        0.99220       -2.15080
C          6.34620        1.34550        0.20620
H          7.35570        1.22000       -0.21610
H          5.94140        2.29810       -0.16730
H          6.43920        1.42470        1.30020
C          6.10980       -1.14090        0.30300
H          6.29470       -1.12680        1.38790
H          5.49300       -2.02040        0.06350
H          7.08370       -1.27060       -0.19230
P         -1.69410       -0.15940       -0.03470
C         -2.53220       -1.76400        0.02370
C         -3.57590       -2.03240       -0.88820
C         -1.94570       -2.84090        0.71620
C         -4.05410       -3.32420       -1.04820
H         -4.00320       -1.22390       -1.48420
C         -2.43530       -4.12650        0.51680
H         -1.11740       -2.70450        1.41200
C         -3.48770       -4.39440       -0.34610
H         -4.87560       -3.51210       -1.74240
C         -2.87840        1.16090       -0.25480
C         -4.22260        0.98050        0.12890
C         -2.45280        2.43700       -0.66490
C         -5.12650        2.03210        0.02790
H         -4.56410        0.01920        0.51430
C         -3.38030        3.46140       -0.76040
H         -1.40750        2.66120       -0.87070
C         -4.71940        3.28470       -0.43010
H         -6.16690        1.87680        0.31980
F         -2.96770        4.66050       -1.16730
C         -0.31150       -0.07430       -1.11760
C         -0.28110        0.65950       -2.33640
C          0.72870       -1.01890       -0.88020
C          0.76940        0.50010       -3.22240
H         -1.09030        1.34270       -2.59210
C          1.74640       -1.15560       -1.80220
H          0.76470       -1.62010        0.02800
C          1.81170       -0.40710       -2.97400
H          0.78170        1.08870       -4.14230
F          2.72260       -2.03760       -1.54380
H          2.63860       -0.54600       -3.67020
H         -5.41090        4.12410       -0.51170
H         -1.52280       -0.61870        2.29860
F         -1.87280       -5.13090        1.18790
H         -3.83990       -5.41900       -0.46910
