92
L00003_lec.log
N          0.60240       -0.99400       -0.20190
S         -0.08350       -2.23120        0.66950
H          0.23630       -0.91940       -1.16100
C         -1.81290       -1.84530        0.58090
C         -2.36410       -0.93790        1.47750
C         -2.60030       -2.45730       -0.39170
C         -3.71460       -0.61750        1.37680
H         -1.74230       -0.48990        2.25390
C         -3.94660       -2.12440       -0.47600
H         -2.15640       -3.19650       -1.06080
C         -4.53090       -1.19010        0.39420
H         -4.12310        0.10470        2.08240
H         -4.55410       -2.61190       -1.24160
C         -6.01510       -0.83470        0.23830
C         -6.46450        0.22700        1.24990
H         -6.35280       -0.12150        2.28780
H         -5.89920        1.16490        1.13760
H         -7.52810        0.46100        1.09330
C         -6.86320       -2.10200        0.45240
H         -7.93410       -1.86640        0.35130
H         -6.62370       -2.88550       -0.28170
H         -6.69750       -2.52000        1.45700
C         -6.25600       -0.28320       -1.17970
H         -7.31700       -0.02030       -1.31150
H         -5.65760        0.62310       -1.35980
H         -5.99780       -1.01720       -1.95730
O          0.36420       -2.10070        2.04940
O          0.12030       -3.48720       -0.03960
C         -0.78660        3.00510       -0.39390
C         -1.13300        1.03650       -1.72540
C         -3.00000        2.08490       -0.63650
C         -2.50230        1.07740       -1.45250
C         -2.15370        3.04830       -0.09790
O          0.09080        3.92180        0.07480
H         -2.56510        3.83110        0.53790
H         -4.06810        2.11810       -0.41020
H         -3.17590        0.32340       -1.85730
O         -0.58720        0.05370       -2.50260
C          3.37460        1.63520        3.50020
H          3.36210        0.75310        4.16470
H          4.30870        2.17740        3.71560
C          3.37480        1.16080        2.04470
H          3.49720        2.02360        1.36700
H          4.23990        0.50090        1.87030
C          4.71150       -3.31610        0.87170
H          5.67110       -2.77090        0.81740
H          4.77260       -3.97020        1.75530
C          3.57270       -2.31210        1.06230
H          2.63200       -2.85840        1.23110
H          3.75540       -1.71930        1.97050
P          2.09850       -0.14700       -0.03010
C          2.05710        0.44810        1.70840
C          0.86870        1.37280        1.98140
H          1.94540       -0.45410        2.33140
H          0.71020        0.93480        4.09330
C          2.16420        2.51640        3.81200
H          2.16510        2.80110        4.87610
H          2.24320        3.45410        3.23360
H         -0.00070        2.48570        3.62330
H         -0.07510        0.87900        1.71150
H          0.95750        2.26200        1.33980
C          0.85590        1.81590        3.44330
C          2.20630        1.00860       -1.30570
C          3.46860        1.12290       -2.01380
C          2.81400        3.22720       -3.02420
C          1.19720        2.03170       -1.61020
C          1.56300        3.10560       -2.41950
C          3.75460        2.18270       -2.83100
H          4.23440        0.35610       -1.89160
H          4.72250        2.21540       -3.33780
H          0.80370        3.86760       -2.61730
H          3.04240        4.07990       -3.66510
C         -0.23500        1.98580       -1.20390
C          3.43800       -1.40150       -0.17060
C          3.24370       -2.24480       -1.44470
H          5.32790       -2.70280       -1.79670
H          4.37350       -0.82320       -0.25880
C          4.38280       -3.24840       -1.62340
H          2.29060       -2.79130       -1.35300
H          4.20150       -3.85330       -2.52540
H          3.62260       -4.76780       -0.29430
H          5.37620       -4.84000       -0.52540
C          4.52970       -4.14710       -0.39700
H          3.16040       -1.59590       -2.32890
C         -1.40040       -0.61540       -3.43400
H         -2.11800       -1.29570       -2.94480
H         -0.72700       -1.20510       -4.06810
H         -1.95440        0.10190       -4.06080
C         -0.34910        4.91360        0.95670
H         -1.10150        5.57500        0.49280
H          0.53270        5.51150        1.21810
H         -0.77490        4.48150        1.88030
