84
L00005_lec.log
N         -0.52180        0.10140        0.64330
S          0.20570       -0.91160        1.75440
H         -0.16570        1.05900        0.68310
C          1.91740       -0.77610        1.32310
C          2.70640        0.17910        1.94960
C          2.44950       -1.62680        0.35450
C          4.04370        0.30160        1.57830
H          2.27890        0.82140        2.72100
C          3.78190       -1.48490       -0.00260
H          1.82560       -2.39890       -0.09840
C          4.60560       -0.51250        0.59020
H          4.64380        1.06420        2.07300
H          4.18860       -2.15370       -0.76380
C          6.06320       -0.37650        0.13320
C          6.79640        0.75240        0.86790
H          6.32180        1.73040        0.69460
H          6.83950        0.57590        1.95340
H          7.83230        0.81950        0.50340
C          6.08840       -0.06860       -1.37590
H          7.12700        0.03920       -1.72540
H          5.62030       -0.86880       -1.96780
H          5.55640        0.86930       -1.59720
C          6.80430       -1.69840        0.40610
H          7.85530       -1.61910        0.08750
H          6.78910       -1.94290        1.47910
H          6.35420       -2.54180       -0.13800
O         -0.25770       -2.25900        1.45630
O          0.02320       -0.34600        3.07850
C          0.97160        1.60410       -1.69040
C          0.83670        3.39960       -0.09040
C          2.99340        2.48610       -0.69860
C          2.22440        3.39030        0.03230
C          2.35420        1.58820       -1.55740
H          0.48140        0.91900       -2.38250
H          2.94450        0.87390       -2.13710
H          4.08010        2.47360       -0.59370
H          2.70810        4.09130        0.71720
H          0.24640        4.09700        0.50890
C         -2.83710       -3.40590       -2.65430
H         -2.74710       -4.18170       -1.87370
H         -3.73790       -3.65050       -3.23830
C         -3.01200       -2.04240       -1.98080
H         -3.19280       -1.27500       -2.75290
H         -3.89960       -2.05920       -1.32900
C         -4.69850       -1.63000        2.52980
H         -5.59890       -1.61900        1.88930
H         -4.73100       -2.57090        3.10090
C         -3.44970       -1.61140        1.64480
H         -2.55530       -1.73390        2.27470
H         -3.46320       -2.47200        0.95840
P         -1.93310       -0.09470       -0.28090
C         -1.74760       -1.67490       -1.18890
C         -0.52510       -1.66230       -2.11200
H         -1.58450       -2.42860       -0.40140
H         -0.11530       -3.77970       -2.00910
C         -1.59770       -3.43910       -3.54900
H         -1.46850       -4.44270       -3.98330
H         -1.74660       -2.74700       -4.39660
H          0.52710       -2.99340       -3.45830
H          0.37760       -1.38000       -1.55140
H         -0.67410       -0.88660       -2.88280
C         -0.34170       -3.02380       -2.78210
C         -2.11750        1.33750       -1.25730
C         -3.47880        1.52210       -1.73520
C         -3.26500        3.93240       -1.60060
C         -1.29280        2.54610       -1.12370
C         -1.92190        3.78770       -1.25650
C         -4.02480        2.76790       -1.89230
H         -4.09620        0.65090       -1.97580
H         -5.04630        2.86290       -2.26940
H         -1.30380        4.68600       -1.16600
H         -3.69900        4.92560       -1.72500
C          0.17170        2.51360       -0.96620
C         -3.35990       -0.29110        0.86860
C         -3.39390        0.92240        1.81240
H         -5.53440        1.01510        2.07560
H         -4.23430       -0.21870        0.19640
C         -4.63520        0.88630        2.70380
H         -2.48870        0.90140        2.44370
H         -4.61510        1.73980        3.39890
H         -3.88900       -0.50090        4.18040
H         -5.65430       -0.44960        4.08190
C         -4.73550       -0.42940        3.47500
H         -3.36610        1.85520        1.22740
