74
L00062_lec.log
P         -1.20730       -0.01470        0.15060
C         -1.11710        1.53450       -0.61670
C          0.00490        2.00980       -1.37420
C         -2.11880        2.50280       -0.28460
C         -0.97340        4.22790       -1.54220
H         -2.84450        4.50200       -0.47210
H          0.91060        3.65400       -2.41530
O         -0.81720        5.47710       -2.04860
C          0.05830        3.30620       -1.82800
C         -2.05120        3.80820       -0.75300
H         -2.94860        2.22790        0.37000
H          0.84640        1.34980       -1.58300
C         -2.87660       -0.73510        0.02180
C         -3.75930       -0.28170       -0.97500
C         -5.33140       -2.04240       -0.43740
C         -3.23540       -1.87360        0.75320
C         -4.44860       -2.52750        0.53230
C         -4.97180       -0.91140       -1.19010
H         -3.48580        0.58090       -1.58630
H         -5.66760       -0.55230       -1.94980
H         -4.68700       -3.41220        1.12250
O         -6.52680       -2.59000       -0.72310
H         -2.56030       -2.28250        1.50920
C          0.03540       -1.16670       -0.42300
C          0.51640       -2.17410        0.43530
C          1.99280       -3.00180       -1.28950
C          0.48980       -1.16530       -1.75180
H          0.15200       -2.22250        1.46220
C          1.47060       -2.05410       -2.18030
C          1.47510       -3.07720        0.00880
O          2.98100       -3.87020       -1.59130
H          1.86710       -3.84150        0.68170
H          1.81210       -2.00250       -3.21410
H          0.07050       -0.46350       -2.47390
N         -1.09710       -0.09120        1.92830
S         -0.13110        0.90920        2.88430
H         -1.95620       -0.29520        2.44110
C          1.45410        0.67460        2.13150
C          2.19690       -0.45950        2.43840
C          1.89810        1.58920        1.18060
C          3.35680       -0.72450        1.71690
H          1.85020       -1.14130        3.21690
C          3.05950        1.30740        0.47330
H          1.31700        2.49010        0.97840
C          3.78970        0.12810        0.69400
H          3.90780       -1.63620        1.94470
H          3.38560        2.02120       -0.28560
C          5.01990       -0.18050       -0.16890
C          5.51690       -1.61870        0.03150
H          6.37470       -1.80760       -0.63200
H          5.86020       -1.79900        1.06120
H          4.73590       -2.35680       -0.21040
C          6.14740        0.79810        0.20590
H          6.42960        0.68540        1.26380
H          7.04130        0.61020       -0.41000
H          5.84180        1.84360        0.04920
C          4.65730       -0.01000       -1.65580
H          3.79880       -0.64590       -1.91980
H          4.39550        1.02800       -1.90640
H          5.51240       -0.29400       -2.28940
O         -0.16030        0.29960        4.20470
O         -0.51900        2.29850        2.71710
C         -1.78620        6.44120       -1.75860
H         -2.78220        6.15470       -2.14290
H         -1.86980        6.62900       -0.67280
H         -1.47150        7.36850       -2.25370
C         -6.94820       -3.72340       -0.01270
H         -6.26490       -4.57730       -0.16280
H         -7.03380       -3.51920        1.06870
H         -7.93800       -3.98840       -0.40300
C          3.55470       -3.83370       -2.87090
H          2.81510       -4.06320       -3.65720
H          4.01260       -2.85200       -3.08360
H          4.33760       -4.60140       -2.88590
