86
L00053_lec.log
P          1.15040        0.20140       -0.09470
C          0.56770        1.50730        0.86770
C          0.61790        1.29860        2.29540
C         -0.00630        2.76710        0.43410
C         -0.70680        3.26870        2.71300
H         -1.07380        4.53780        1.00070
H          0.02640        1.91650        4.26150
C         -0.01790        2.11960        3.19010
C         -0.64320        3.59300        1.33560
C          2.97980        0.08900        0.06520
C          3.70700        1.19190       -0.41890
C          5.75230        0.27990        0.44460
C          3.67670       -0.90570        0.77840
C          5.06370       -0.81570        0.95350
C          5.08990        1.29390       -0.23570
H          5.64290        2.14790       -0.62480
H          5.60660       -1.58660        1.49840
C          0.45680       -1.48130        0.09040
C         -0.63110       -1.76770        0.93660
C         -0.60030       -4.06520        0.20700
C          0.99250       -2.51510       -0.70320
C          0.45380       -3.80550       -0.66180
C         -1.14340       -3.07120        1.01160
H         -1.98320       -3.29970        1.66570
H          0.85630       -4.59850       -1.28990
N          0.85330        0.56280       -1.73260
S         -0.37270        0.03210       -2.73990
H          1.02790        1.55270       -1.91740
C         -1.85850       -0.04200       -1.76090
C         -2.50670       -1.25700       -1.58700
C         -2.38790        1.13060       -1.22850
C         -3.70180       -1.29300       -0.87080
H         -2.06650       -2.16780       -1.99640
C         -3.57530        1.07600       -0.51430
H         -1.86560        2.07440       -1.37040
C         -4.26640       -0.13200       -0.32810
H         -4.19130       -2.25840       -0.74370
H         -3.96850        2.00590       -0.10110
C         -5.62380       -0.13440        0.38950
C         -6.09000       -1.55450        0.73680
H         -5.35930       -2.07930        1.37240
H         -7.04070       -1.50930        1.28920
H         -6.26390       -2.16500       -0.16160
C         -6.65780        0.50610       -0.55710
H         -7.65480        0.51780       -0.08840
H         -6.38510        1.54330       -0.80290
H         -6.72700       -0.05590       -1.50090
C         -5.55830        0.68130        1.69280
H         -6.53920        0.66920        2.19260
H         -4.81740        0.26420        2.38950
H         -5.29430        1.73330        1.51640
O         -0.09070       -1.31900       -3.19310
O         -0.50230        1.11340       -3.70290
O          1.33700        0.18230        2.61180
C          1.27520       -0.33310        3.90330
H          1.82680       -1.28200        3.89150
H          0.23190       -0.52140        4.21500
H          1.74170        0.34610        4.63920
O          0.15420        3.08260       -0.89630
C         -0.35350        4.29280       -1.37680
H         -1.44690        4.36720       -1.23170
H         -0.14050        4.31740       -2.45330
H          0.12080        5.15900       -0.88150
O          2.98810        2.13250       -1.06360
O          2.95260       -1.91500        1.28990
C          3.58290       -3.03140        1.84690
H          4.12680       -2.77940        2.77410
H          4.28510       -3.50090        1.13640
H          2.78510       -3.74650        2.08430
C          3.49710        3.43020       -1.22090
H          2.65800        4.04530       -1.56670
H          4.30450        3.46510       -1.97160
H          3.86740        3.83200       -0.26370
O          2.04060       -2.18170       -1.46260
O         -1.15760       -0.74750        1.61770
C         -2.19720       -0.94680        2.53070
H         -1.90410       -1.64250        3.33660
H         -3.10450       -1.32900        2.03340
H         -2.40620        0.04040        2.96180
C          2.44450       -3.01380       -2.51830
H          1.60210       -3.21640       -3.19670
H          2.87450       -3.96010       -2.14710
H          3.21890       -2.46130       -3.06290
H         -1.01770       -5.07390        0.25230
H          6.83290        0.34670        0.58880
H         -1.21950        3.93360        3.40840
