65
L00019_lec.log
P         -1.25260        0.47270        0.40860
C         -2.24590        1.46570       -0.74720
C         -3.20250        0.88070       -1.59150
C         -2.13490        2.86100       -0.69030
C         -3.89390        3.07310       -2.33260
H         -2.84820        4.74560       -1.44970
H         -4.77100        1.22320       -3.02480
H         -4.53690        3.70160       -2.95260
C         -4.02260        1.68560       -2.37820
C         -2.94920        3.65920       -1.48990
H         -1.40290        3.31520       -0.01840
H         -3.32900       -0.20410       -1.61820
C          0.09040        1.30500        1.05100
C          1.00700        1.98140        0.15410
C          2.49990        2.50010        2.00390
C          0.47180        1.22300        2.44420
C          1.63500        1.81180        2.88530
C          2.15630        2.56500        0.63760
H          0.78720        2.02860       -0.91620
H          2.82000        3.08120       -0.06100
H          1.88770        1.74630        3.94720
H          3.41110        2.97330        2.37320
H         -0.16340        0.69650        3.16000
C         -2.30890       -0.21620        1.73450
C         -3.61620       -0.75820        1.22010
C         -5.94790       -0.41720        0.64310
H         -1.71110       -1.00240        2.21850
C         -3.70040       -2.06660        0.72940
C         -4.75150        0.05840        1.17490
H         -2.46660        0.60270        2.45130
C         -6.02140       -1.71740        0.14530
H         -2.81820       -2.70900        0.76350
H         -4.69320        1.08450        1.54770
C         -4.89620       -2.54040        0.19310
N         -0.95120       -0.88110       -0.67080
S         -0.00420       -2.20570       -0.29900
H         -1.04260       -0.73670       -1.67430
C          1.67050       -1.62960       -0.35820
C          2.34250       -1.61720       -1.57600
C          2.27750       -1.15340        0.80130
C          3.63620       -1.10440       -1.63070
H          1.86350       -2.02040       -2.47020
C          3.56430       -0.64070        0.72380
H          1.74330       -1.16790        1.75110
C          4.27090       -0.60110       -0.48780
H          4.15060       -1.10720       -2.59130
H          4.01350       -0.24550        1.63630
C          5.68710       -0.01240       -0.51800
C          6.33040       -0.11850       -1.90620
H          5.76160        0.43890       -2.66600
H          7.34440        0.30810       -1.87720
H          6.42010       -1.16450       -2.23770
C          6.57480       -0.77190        0.48530
H          7.60030       -0.37100        0.46460
H          6.20310       -0.67900        1.51590
H          6.62080       -1.84350        0.23790
C          5.61510        1.47450       -0.12530
H          5.00680        2.03870       -0.84830
H          5.16260        1.61480        0.86720
H          6.62500        1.91410       -0.10800
O         -0.21160       -3.14860       -1.38190
O         -0.31640       -2.54500        1.08320
H         -4.94790       -3.56260       -0.18790
H         -6.82490        0.23300        0.61390
H         -6.95750       -2.09190       -0.27470
