98
L00050_lec.log
P         -0.93830       -0.18140       -0.17300
C          0.18640       -1.20490        0.64740
C          1.35580       -1.86130        0.09340
C          0.05820       -1.26800        2.08490
C          2.31730       -2.05800        2.31070
H          1.01090       -1.64970        3.98920
H          3.29490       -2.69560        0.48730
O          3.39760       -2.25300        3.14490
C          2.40220       -2.23630        0.91030
C          1.09530       -1.63970        2.90200
C         -2.58520       -0.99120       -0.22170
C         -2.67660       -2.19770       -0.92810
C         -4.92340       -2.57130       -0.16700
C         -3.70770       -0.60480        0.54540
C         -4.86630       -1.37950        0.56200
C         -3.82680       -2.99600       -0.91600
H         -3.85450       -3.91450       -1.49650
H         -5.74140       -1.10280        1.14620
O         -6.08400       -3.25050       -0.08470
C         -1.19520        1.55550        0.33270
C         -0.47420        2.19240        1.36420
C         -1.53390        4.30150        0.85840
C         -2.08630        2.34150       -0.41790
C         -2.26100        3.70590       -0.17260
C         -0.64420        3.54950        1.63100
O         -1.62540        5.60540        1.18030
H         -0.08930        4.06000        2.41500
H         -2.94950        4.28150       -0.78540
N         -0.48290       -0.06800       -1.81850
S          0.49680        1.01800       -2.61800
H         -0.39930       -0.99580       -2.23620
C          2.13600        0.84900       -1.94020
C          3.18220        0.48660       -2.77820
C          2.36010        1.07530       -0.58430
C          4.46060        0.32060       -2.24280
H          2.98960        0.31990       -3.83910
C          3.62730        0.86820       -0.06340
H          1.54790        1.35620        0.08200
C          4.70440        0.47880       -0.87370
H          5.26660        0.03440       -2.91860
H          3.76390        0.98210        1.01330
C          6.06500        0.19190       -0.22690
C          6.51270        1.40520        0.60780
H          6.59300        2.30650       -0.01920
H          5.81260        1.62340        1.42700
H          7.49830        1.21250        1.05970
C          7.15080       -0.10000       -1.26990
H          6.92000       -0.99780       -1.86330
H          7.29020        0.74510       -1.96170
H          8.11190       -0.28030       -0.76490
C          5.91650       -1.04060        0.68670
H          5.63410       -1.92610        0.09520
H          6.87130       -1.26020        1.19090
H          5.14580       -0.90170        1.46020
O          0.03480        2.36420       -2.32830
O          0.53160        0.52330       -3.98430
C          4.10680       -3.44800        2.98530
H          3.43150       -4.32330        2.97350
H          4.70930       -3.46430        2.05750
H          4.79720       -3.53820        3.83620
C         -6.21530       -4.46670       -0.76870
H         -6.11020       -4.33640       -1.85980
H         -5.47650       -5.21110       -0.42450
H         -7.22310       -4.84140       -0.55260
C         -2.45450        6.44330        0.42120
H         -2.35320        7.45040        0.84330
H         -2.14930        6.46710       -0.63890
H         -3.51320        6.13650        0.48250
O          1.33450       -2.10440       -1.25580
C          2.44740       -2.70970       -1.84340
H          2.60050       -3.73660       -1.46250
H          3.36850       -2.12750       -1.67280
H          2.25460       -2.74790       -2.92410
O         -1.17430       -0.86430        2.50560
C         -1.37140       -0.57910        3.85490
H         -1.29150       -1.48590        4.48090
H         -2.38500       -0.16830        3.94820
H         -0.64290        0.16590        4.22080
O         -1.58540       -2.55530       -1.64110
O         -3.59590        0.51790        1.26960
C         -4.68910        1.01650        1.98430
H         -5.55070        1.21710        1.32470
H         -4.35530        1.96020        2.43340
H         -5.00480        0.32680        2.78630
C         -1.31170       -3.91150       -1.88460
H         -1.44990       -4.51190       -0.97150
H         -0.25910       -3.95770       -2.18640
H         -1.94250       -4.31710       -2.69350
O         -2.77170        1.70060       -1.37460
O          0.40720        1.44130        2.04200
C          1.29220        2.01410        2.96410
H          1.91850        2.79120        2.49260
H          1.92630        1.19010        3.31610
H          0.75880        2.45510        3.82390
C         -3.24110        2.40480       -2.49530
H         -2.43370        3.01170       -2.93390
H         -4.10770        3.04210       -2.24820
H         -3.55960        1.64740       -3.22170
