66
L00031_lec.log
P          2.09200        0.27320        0.06320
C          0.73880        1.32290       -0.07170
C          0.62930        2.40820       -1.02590
C         -0.27810        1.28260        0.96350
C         -1.43410        3.19820        0.00660
H         -2.07510        2.09090        1.76270
H         -0.47720        4.08540       -1.72790
H         -2.26110        3.90900        0.03140
C         -0.43020        3.28700       -0.98190
C         -1.31810        2.18270        0.97840
H         -0.25610        0.48990        1.71290
H          1.39650        2.56150       -1.78490
C          3.05370        0.06270       -1.54310
C          4.01280        1.24040       -1.78530
H          4.39270       -1.35290       -2.45360
H          3.50990        2.21720       -1.75560
C          3.85830       -1.24890       -1.49620
H          4.45740        1.12600       -2.78650
H          4.84150        1.25610       -1.06430
H          4.61030       -1.26660       -0.69880
C          2.06390       -0.04740       -2.71910
H          1.42290        0.83470       -2.82890
H          3.19910       -2.11900       -1.38700
C          3.24520        0.69800        1.55230
H          5.07610        0.13200        2.55030
H          4.11740        2.52110        2.32400
C          4.53650       -0.12320        1.62310
H          4.18250        2.43270        0.55620
H          4.34670       -1.20750        1.64380
C          3.56200        2.19710        1.42940
H          3.07280        0.88320        3.69450
C          2.45650        0.50890        2.86110
H          2.64030        2.79430        1.36520
H          5.21540        0.08960        0.78620
N          1.58330       -1.27250        0.62470
S          0.51760       -2.41610       -0.00300
H          1.99960       -1.64750        1.47370
C         -1.07910       -1.65720       -0.01240
C         -1.48670       -0.90750       -1.11400
C         -1.90560       -1.81480        1.09310
C         -2.73530       -0.30550       -1.08920
H         -0.82890       -0.78370       -1.97380
C         -3.16120       -1.21090        1.09260
H         -1.57330       -2.41760        1.93980
C         -3.60190       -0.44530        0.00680
H         -3.03530        0.29490       -1.94950
H         -3.79940       -1.35330        1.96400
C         -4.98430        0.21880       -0.03350
C         -5.79250       -0.04740        1.24250
H         -6.77090        0.45120        1.17070
H         -5.97970       -1.12150        1.39480
H         -5.28650        0.34740        2.13680
C         -5.77080       -0.34500       -1.23220
H         -5.88410       -1.43690       -1.15070
H         -6.77630        0.10240       -1.27170
H         -5.27200       -0.12810       -2.18810
C         -4.81820        1.74070       -0.19260
H         -4.29180        2.17030        0.67190
H         -4.23900        2.00430       -1.08920
H         -5.80550        2.22260       -0.27040
O          0.54680       -3.46830        0.99940
O          0.87790       -2.69730       -1.38340
H          2.64930       -0.15950       -3.64600
H          1.43250       -0.93800       -2.61670
H          1.51830        1.07940        2.86100
H          2.22330       -0.54200        3.08870
