62
L000233_rerun-tet.log
C          2.06670       -1.01990       -1.58620
C          2.55640       -1.79130       -0.53890
C          3.72580       -1.39500        0.10030
C          4.41990       -0.23970       -0.28110
C          3.88770        0.52040       -1.33490
C          2.72640        0.13630       -1.99450
H          2.01960       -2.68700       -0.22680
H          4.09530       -2.01130        0.91990
H          4.39100        1.42910       -1.66370
H          2.34070        0.72740       -2.82780
S          0.58410       -1.52040       -2.41090
O          0.13370       -2.76670       -1.81470
O          0.74200       -1.38100       -3.84740
N         -0.52750       -0.31820       -2.01110
C          5.75750        0.12140        0.37900
C          5.72980       -0.16650        1.88950
H          5.59340       -1.23460        2.11170
H          6.68730        0.13560        2.34080
H          4.92480        0.39690        2.38210
C          6.84790       -0.74290       -0.28410
H          6.64850       -1.81550       -0.13790
H          6.89830       -0.55430       -1.36760
H          7.83440       -0.51590        0.15070
C          6.10500        1.60470        0.18420
H          6.28920        1.85520       -0.87120
H          5.30110        2.25220        0.56500
H          7.02650        1.84450        0.73560
P         -1.19870       -0.07520       -0.43160
C         -1.88890        1.58400       -0.73650
C         -1.09440        2.58580       -1.31160
C         -3.18170        1.88900       -0.29580
C         -1.58880        3.88300       -1.43020
H         -0.09030        2.35270       -1.67280
C         -3.66370        3.18670       -0.43690
H         -3.82120        1.12700        0.15280
C         -2.87470        4.19280       -0.99640
H         -0.96590        4.66380       -1.87070
C         -2.53330       -1.26610       -0.20250
C         -2.99540       -2.03910       -1.27140
C         -3.14520       -1.36510        1.05520
C         -4.06860       -2.90720       -1.08190
H         -2.50020       -1.98460       -2.24070
C         -4.21190       -2.24140        1.22520
H         -2.78840       -0.77060        1.89850
C         -4.68310       -3.01370        0.16220
H         -4.42520       -3.51730       -1.91360
Cl        -4.96980       -2.37040        2.78480
C         -0.06910       -0.13960        0.85310
C          0.09270       -1.30770        1.68330
C          0.85050        0.95320        1.05320
C          1.04550       -1.32800        2.67540
H         -0.53280       -2.18630        1.51690
C          1.78760        0.87540        2.05830
H          0.80570        1.85430        0.44260
C          1.91640       -0.23960        2.90110
H          1.13960       -2.22020        3.29940
Cl         2.85730        2.24450        2.29860
H          2.66720       -0.26050        3.68980
H         -5.52170       -3.69370        0.31810
H         -0.88900        0.16690       -2.83120
Cl        -5.27800        3.55700        0.09250
H         -3.27160        5.20430       -1.09010
