103
L00090_lec.log
P          1.71680       -1.77170        0.07260
C          0.80350       -3.10490        1.05780
H         -0.12840       -3.99030       -0.74970
C         -0.39790       -3.61300        0.24370
H          2.03620       -4.86820        0.56360
H          1.05480       -5.00660        2.02850
C          0.26850       -2.43340        2.33020
H         -0.36660       -3.15340        2.87110
C          1.67540       -4.31360        1.43850
H         -0.86940       -4.43710        0.80210
H         -1.15810       -2.83200        0.12480
H          2.53950       -4.05050        2.05990
C          2.60580       -0.69910        1.12390
C          3.53120       -1.36010        2.03130
C          4.84980        0.65210        2.32620
C          2.77960        0.75890        0.99570
C          3.89500        1.35030        1.57000
C          4.60240       -0.71470        2.59390
H          3.39550       -2.41500        2.26900
H          5.25990       -1.26910        3.26890
H          3.98360        2.43790        1.48380
H          5.70500        1.16980        2.76150
C          1.72040        1.69270        0.48740
C          2.75400       -2.55430       -1.32490
C          2.16240       -3.77440       -2.04280
H          2.86410       -4.07240       -2.83920
H          2.04690       -4.64240       -1.38010
C          3.00260       -1.43290       -2.34010
H          1.19980       -3.54690       -2.51310
H          4.74100       -3.37190       -1.48040
C          4.10340       -2.94230       -0.69150
N          0.51610       -0.77040       -0.62070
S         -0.52700       -0.82650       -1.92180
H          0.63320        0.20750       -0.32360
C         -2.14090       -0.81300       -1.17930
C         -3.03500       -1.84450       -1.45270
C         -2.50550        0.24960       -0.36210
C         -4.29870       -1.80980       -0.87460
H         -2.73310       -2.66610       -2.10390
C         -3.77170        0.26160        0.21450
H         -1.80660        1.06480       -0.16510
C         -4.69440       -0.76500       -0.02450
H         -4.99000       -2.62610       -1.09370
H         -4.02940        1.09890        0.86270
C         -6.09400       -0.78220        0.60280
C         -6.34050        0.43880        1.49800
H         -7.35250        0.38450        1.92640
H         -5.62920        0.48300        2.33680
H         -6.27130        1.38140        0.93410
C         -6.24340       -2.05200        1.46140
H         -5.48910       -2.07540        2.26280
H         -7.24010       -2.08100        1.92870
H         -6.12950       -2.96840        0.86380
C         -7.14970       -0.78440       -0.51820
H         -7.05150        0.10990       -1.15220
H         -7.06010       -1.66840       -1.16650
H         -8.16290       -0.78910       -0.08700
O         -0.36330       -2.09490       -2.61330
O         -0.36270        0.43000       -2.62970
C          0.56800        1.93960        1.28280
C          1.87940        2.40190       -0.72430
C         -0.25790        3.53390       -0.37660
C          0.88680        3.30060       -1.12900
C         -0.39160        2.84770        0.83470
H         -1.26990        3.03810        1.45660
H          1.00680        3.83110       -2.07720
H          4.62340       -2.07520       -0.26260
H          4.00320       -3.70110        0.09730
H          1.07550       -2.10730        3.00010
H         -0.34870       -1.55740        2.08690
H          3.78150       -1.75670       -3.04810
H          3.36100       -0.51880       -1.84750
H          2.10300       -1.19280       -2.92130
C         -1.33660        4.47830       -0.87550
C         -2.59640        3.70580       -1.28270
H         -2.35570        2.90490       -1.99770
H         -3.33730        4.37600       -1.74590
H         -3.07380        3.24120       -0.40420
C         -1.65700        5.58500        0.13280
H         -0.93970        4.96090       -1.78400
H         -2.38680        6.29470       -0.28700
H         -0.75200        6.14590        0.40910
H         -2.09190        5.17360        1.05770
C          0.42380        1.30140        2.65770
C          1.09090        2.18940        3.71610
H          2.15220        2.35020        3.48060
H          1.03220        1.71930        4.71030
H          0.59490        3.17230        3.77090
C         -1.02070        0.98080        3.04680
H          0.97780        0.35360        2.63330
H         -1.61330        1.88970        3.23980
H         -1.03750        0.38530        3.97260
H         -1.53750        0.40250        2.26540
C          3.10750        2.23050       -1.60320
C          2.74620        1.96820       -3.06950
H          1.95990        1.20660       -3.15960
H          3.63380        1.63190       -3.62780
H          2.37740        2.88050       -3.56460
C          4.04650        3.43620       -1.47900
H          3.65600        1.35820       -1.21850
H          4.94530        3.29260       -2.09900
H          4.37150        3.58950       -0.44020
H          3.54760        4.35930       -1.81600
