76
L00042_lec.log
P         -1.25050        0.14340        0.76730
C         -0.90130       -1.56600        0.03160
H          0.62230       -2.18570        1.51830
C          0.51120       -2.02540        0.44010
H         -1.81080       -2.88820        1.53030
H         -1.65860       -3.57520       -0.09440
C         -0.90620       -1.39650       -1.49710
H         -0.58940       -2.34760       -1.95450
C         -1.89750       -2.65330        0.45930
H          0.69950       -2.99140       -0.05420
H          1.29250       -1.32920        0.11540
H         -2.93920       -2.39830        0.23690
C         -2.39620        1.15120       -0.05630
C         -2.09150        2.57230       -0.01150
C         -3.45540        3.00400       -1.96620
C         -3.44790        0.74940       -0.99370
C         -3.87900        1.67370       -1.94460
C         -2.59180        3.44800       -0.94040
H         -1.38110        2.95850        0.72130
H         -2.30100        4.49970       -0.88410
H         -4.65490        1.35230       -2.64630
H         -3.84010        3.69680       -2.71580
C         -4.22230       -0.51180       -0.90260
C         -1.48970        0.07400        2.67080
C         -1.43270        1.50940        3.22580
H         -3.65610        0.26390        2.61650
H         -0.42890        1.96040        3.20040
H         -2.12140        2.17930        2.69260
C         -2.90040       -0.45480        2.95740
H         -1.74150        1.48680        4.28310
H         -0.58870       -0.67480        4.48430
H         -3.02030       -0.57750        4.04570
C         -0.45740       -0.79810        3.39700
H         -3.10960       -1.42220        2.48390
N          0.30130        0.93200        0.83760
S          1.14800        1.80890       -0.31550
H          0.61750        1.20830        1.76340
C          2.73030        0.99100       -0.34060
C          3.00160        0.04530       -1.32700
C          3.68030        1.30020        0.62650
C          4.22590       -0.61140       -1.31480
H          2.25950       -0.16470       -2.09880
C          4.90070        0.62780        0.62540
H          3.47360        2.07550        1.36680
C          5.19840       -0.34450       -0.33770
H          4.42490       -1.34950       -2.09460
H          5.62980        0.88540        1.39300
C          6.53010       -1.10620       -0.36500
C          7.46210       -0.68400        0.77770
H          8.39890       -1.25810        0.72170
H          7.72580        0.38300        0.71930
H          7.01500       -0.87780        1.76480
C          7.24330       -0.82860       -1.70140
H          8.20610       -1.36180       -1.73690
H          6.64680       -1.16140       -2.56340
H          7.44250        0.24680       -1.82470
C          6.24850       -2.61430       -0.22940
H          5.72810       -2.83380        0.71550
H          5.62530       -2.99240       -1.05310
H          7.19280       -3.18060       -0.23950
O          1.36270        3.12980        0.24950
O          0.51690        1.60520       -1.60250
C         -4.36190       -1.37360       -2.00500
C         -4.92950       -0.84110        0.26620
C         -5.77300       -2.87350       -0.73500
C         -5.68670       -2.00490        0.35520
C         -5.11950       -2.54040       -1.92040
H         -3.85360       -1.12520       -2.94010
H         -5.19590       -3.19780       -2.78990
H         -6.36140       -3.79090       -0.66660
H         -6.22800       -2.22880        1.27790
H         -4.90130       -0.14670        1.10460
H         -0.59130       -1.86550        3.17430
H          0.58250       -0.52690        3.15980
H         -1.89910       -1.14980       -1.88160
H         -0.22270       -0.59970       -1.81890
