54
L00072_lec.log
P         -2.43320        0.49190        0.26690
C         -3.64850        0.39880       -1.07980
H         -3.10060       -0.00650       -1.94350
H         -3.94020        1.43250       -1.32170
C         -4.85480       -0.48060       -0.76960
H         -5.52140       -0.52020       -1.64220
H         -5.44200       -0.09820        0.07930
H         -4.53580       -1.50700       -0.54200
C         -1.11740        1.49840       -0.13220
C         -0.85410        1.96650       -1.47670
C         -0.12370        1.80780        0.87810
C          1.21540        3.02830       -0.74740
C          0.98770        2.55720        0.56200
H         -1.55570        1.74270       -2.28350
C          0.27080        2.70820       -1.75170
H          0.43080        3.06180       -2.77400
H          2.09260        3.63450       -0.97880
H          1.70660        2.79150        1.35220
H         -0.24790        1.44410        1.90220
C         -3.25060        0.96150        1.83950
H         -2.49150        0.86680        2.63290
C         -3.81280        2.37810        1.79590
H         -4.03370        0.21660        2.05300
N         -2.10710       -1.17040        0.71180
S         -1.24630       -2.24390       -0.23880
H         -2.22870       -1.49990        1.66670
C          0.42790       -1.66960       -0.17050
C          1.21350       -1.98180        0.93860
C          0.91310       -0.85500       -1.18420
C          2.48840       -1.44130        1.02960
H          0.82980       -2.64800        1.71370
C          2.19270       -0.31880       -1.07140
H          0.28930       -0.62180       -2.04680
C          3.00020       -0.58710        0.03750
H          3.09760       -1.69130        1.90080
H          2.53780        0.34300       -1.86370
C          4.40230        0.01260        0.20050
C          4.47110        0.78610        1.53000
H          3.72100        1.59020        1.54920
H          4.29190        0.13470        2.39800
H          5.46670        1.23970        1.65530
C          4.74520        0.98420       -0.93570
H          5.74180        1.41830       -0.76390
H          4.77020        0.47920       -1.91330
H          4.02010        1.81050       -0.99070
C          5.43860       -1.12600        0.20770
H          5.26760       -1.83010        1.03580
H          5.40110       -1.69690       -0.73270
H          6.45510       -0.71700        0.32010
O         -1.73270       -2.06190       -1.59770
O         -1.34070       -3.51870        0.44870
H         -4.25440        2.64560        2.76650
H         -4.59950        2.47610        1.03260
H         -3.02160        3.10480        1.56180
