62
L00017_lec.log
P         -1.51850       -0.08340       -0.07240
C         -0.35800       -1.37790       -0.54370
C          0.25790       -2.17020        0.43380
C         -0.13860       -1.67290       -1.90070
C          1.36720       -3.46000       -1.28170
H          0.90060       -2.90890       -3.32010
H          1.60070       -3.80360        0.83720
H          2.04530       -4.26600       -1.57000
C          1.11870       -3.20150        0.06400
C          0.72970       -2.69630       -2.26280
H         -0.65760       -1.10480       -2.67490
H          0.06820       -1.96690        1.48820
C         -1.39830        1.31460       -1.07090
C         -0.32210        1.56580       -1.99200
C         -1.18010        3.79560       -2.45170
C         -2.31680        2.39680       -0.82380
C         -2.20360        3.58840       -1.51260
C         -0.23950        2.76840       -2.66160
H          0.44990        0.81290       -2.15310
H          0.58230        2.92280       -3.36610
H         -2.91850        4.38830       -1.30420
H         -1.09900        4.74230       -2.98760
H         -3.09450        2.28930       -0.06400
C         -3.20220       -0.79750       -0.03770
C         -4.16130       -0.37150       -0.96500
C         -5.69890       -2.05950       -0.16850
C         -3.49450       -1.88400        0.80180
H         -3.92860        0.44950       -1.64640
C         -4.73730       -2.50920        0.73540
C         -5.40710       -0.99200       -1.01780
H         -6.67450       -2.54770       -0.21740
H         -6.15350       -0.64130       -1.73350
H         -4.95360       -3.35460        1.39200
H         -2.74590       -2.25960        1.50480
N         -1.33440        0.11300        1.66280
S         -0.34730        1.23810        2.45120
H         -2.11840       -0.13260        2.26830
C          1.22310        0.90080        1.70860
C          2.01150       -0.12750        2.21170
C          1.60540        1.61580        0.57670
C          3.16430       -0.49420        1.52350
H          1.70980       -0.64580        3.12390
C          2.75420        1.22830       -0.09960
H          0.99040        2.44140        0.21580
C          3.53800        0.14790        0.33600
H          3.76170       -1.31530        1.91830
H          3.02670        1.77550       -1.00430
C          4.73720       -0.30180       -0.50640
C          5.44990       -1.51490        0.10360
H          4.77700       -2.38240        0.18510
H          6.29400       -1.80950       -0.53790
H          5.85650       -1.29430        1.10240
C          5.74750        0.85350       -0.62310
H          6.11810        1.15350        0.36890
H          6.61110        0.54490       -1.23280
H          5.30380        1.74020       -1.09900
C          4.22610       -0.69640       -1.90560
H          3.47330       -1.49650       -1.83410
H          3.76200        0.15350       -2.42740
H          5.05940       -1.05660       -2.52930
O         -0.35570        0.80460        3.83870
O         -0.74510        2.58700        2.09950
