104
L00004_lec-corrected_lec.log
P         -2.19380       -0.20560       -0.13680
C         -2.08460        0.52450       -1.81980
C         -0.83430        1.38680       -2.00560
H         -2.01970       -0.33670       -2.50580
C         -2.00980        2.73090       -3.77940
H         -0.65210        1.08230       -4.14060
H         -1.96870        3.08330       -4.82230
H         -2.04190        3.63340       -3.14270
H          0.14410        2.54790       -3.54850
H         -0.88280        2.23630       -1.30860
H          0.07100        0.81930       -1.74890
C         -0.75740        1.92430       -3.43340
C         -2.22630        0.82410        1.24640
C         -3.47930        0.95010        1.97390
C         -2.55090        2.59110        3.49970
C         -1.11130        1.63600        1.74800
C         -1.32690        2.48000        2.82930
C         -3.62670        1.79070        3.04530
H         -4.35210        0.37760        1.65920
H         -4.59750        1.84150        3.54560
H         -0.47510        3.07180        3.17880
H         -2.66390        3.26260        4.35170
C          0.28930        1.61870        1.23060
C         -3.63340       -1.35440       -0.11620
H         -4.52220       -0.71400        0.01460
C         -4.93900       -4.01530       -0.12430
C         -3.52060       -2.31220        1.08480
H         -3.40070       -1.74530        2.01970
C         -4.73480       -3.23640        1.17360
H         -2.60970       -2.91990        0.95510
H         -4.08200       -4.69460       -0.27600
H         -5.63680       -2.63550        1.38900
H         -5.83800       -4.64810       -0.05770
H         -4.60970       -3.92680        2.02220
N         -0.77080       -1.17980       -0.04140
S         -0.15600       -2.39440       -0.98590
H         -0.36820       -1.17890        0.90840
C          1.59180       -2.08220       -0.94910
C          2.14370       -1.15230       -1.82260
C          2.39500       -2.77540       -0.04640
C          3.50950       -0.89050       -1.76640
H          1.50990       -0.64250       -2.54960
C          3.75690       -2.50290       -0.00760
H          1.95230       -3.53000        0.60570
C          4.34270       -1.54760       -0.85340
H          3.91740       -0.14940       -2.45260
H          4.37560       -3.05460        0.70360
C          5.84620       -1.26210       -0.74720
C          6.29540       -0.16350       -1.71850
H          6.12290       -0.44720       -2.76760
H          5.77580        0.78810       -1.52780
H          7.37400        0.01830       -1.59920
C          6.62790       -2.54900       -1.06980
H          7.71160       -2.36410       -1.00580
H          6.38630       -3.36220       -0.36960
H          6.39980       -2.90190       -2.08700
C          6.17400       -0.80250        0.68590
H          7.25120       -0.59630        0.78340
H          5.62860        0.11900        0.94120
H          5.91400       -1.56590        1.43400
O         -0.64150       -2.19480       -2.34510
O         -0.38080       -3.67030       -0.31700
C          0.80460        2.73400        0.53310
C          1.18320        0.58910        1.56690
C          3.00870        1.75270        0.53760
C          2.53750        0.64800        1.23470
C          2.15710        2.78990        0.17280
O         -0.10970        3.67730        0.22220
H          2.55250        3.63420       -0.38630
H          4.06380        1.80310        0.25810
H          3.21330       -0.16510        1.49520
O          0.63380       -0.49100        2.19480
C         -3.28220        1.91520       -3.54660
H         -3.31440        1.07940       -4.26780
H         -4.17350        2.53220       -3.74120
C         -3.34380        1.34670       -2.12640
H         -3.41870        2.16910       -1.39370
H         -4.25590        0.73960       -2.01020
C         -5.04260       -3.06930       -1.31920
H         -5.95720       -2.45670       -1.22220
H         -5.14630       -3.64040       -2.25490
C         -3.82620       -2.14660       -1.42090
H         -2.92940       -2.74850       -1.63180
H         -3.95130       -1.46880       -2.27800
C          0.17030        5.03420       -0.09860
C          1.37600       -1.29970        3.10480
C          1.04820        5.72280        0.93950
H          0.65180        5.53690        1.94790
H          1.04010        6.80820        0.76130
H          2.09250        5.38330        0.91150
C          0.63460        5.21460       -1.54130
H         -0.83020        5.48780       -0.02690
H          1.66720        4.87910       -1.70970
H          0.58160        6.27900       -1.81440
H         -0.02370        4.65500       -2.22130
C          1.70380       -0.50770        4.35990
H          2.25610       -1.13420        5.07570
H          0.77480       -0.15750        4.83380
H          2.32220        0.36980        4.12220
C          0.50240       -2.51400        3.36530
H          2.30860       -1.63390        2.61620
H         -0.45090       -2.20280        3.81790
H          1.00680       -3.21100        4.04970
H          0.27990       -3.04690        2.42800
