62
L00061_lec.log
P          1.39810        0.10310        0.02580
C          0.10430        0.23340       -1.08740
C         -0.79750        1.35930       -0.95760
C         -0.28040       -0.81400       -2.00320
C         -2.23750        0.43650       -2.64610
H         -1.70020       -1.48600       -3.47040
H         -2.60040        2.30880       -1.64230
F         -3.37000        0.51560       -3.37590
C         -1.93080        1.45260       -1.73970
C         -1.41750       -0.69810       -2.76950
H          0.33270       -1.71270       -2.09270
H         -0.59500        2.14540       -0.22620
C          2.52240       -1.24190       -0.38070
C          3.02140       -1.31150       -1.69180
C          4.35820       -3.19910       -1.07800
C          2.97110       -2.15860        0.57740
C          3.89240       -3.14210        0.22920
C          3.93350       -2.29620       -2.04880
H          2.69210       -0.58740       -2.44070
H          4.32840       -2.36940       -3.06290
H          4.24550       -3.87140        0.95920
F          5.23690       -4.13810       -1.41320
H          2.57670       -2.12680        1.59230
C          2.37120        1.64260        0.15490
C          2.25900        2.61950       -0.84310
C          4.03260        3.86870        0.17520
C          3.35400        1.78760        1.14630
H          1.52050        2.49860       -1.63860
C          4.18800        2.90150        1.16160
C          3.07870        3.74290       -0.82940
F          4.82280        4.93710        0.18680
H          2.99460        4.51910       -1.59120
H          4.95880        3.02770        1.92310
H          3.48380        1.01900        1.91220
N          1.01770       -0.02770        1.73820
S         -0.09500       -1.07020        2.44940
H          1.12780        0.81600        2.29840
C         -1.66490       -0.70030        1.71530
C         -2.13650       -1.49730        0.68050
C         -2.41100        0.38060        2.18440
C         -3.36880       -1.20400        0.10360
H         -1.54330       -2.34190        0.32910
C         -3.63670        0.65650        1.59420
H         -2.04190        0.98390        3.01590
C         -4.14500       -0.12770        0.54410
H         -3.71300       -1.83570       -0.71380
H         -4.21630        1.50120        1.97250
C         -5.52000        0.19610       -0.05550
C         -5.89070       -0.76110       -1.19560
H         -5.16650       -0.70130       -2.02120
H         -5.95420       -1.80490       -0.85200
H         -6.87690       -0.48690       -1.59950
C         -5.51770        1.62730       -0.62240
H         -6.52470        1.89170       -0.98120
H         -5.22570        2.37370        0.13120
H         -4.82720        1.70200       -1.47400
C         -6.58160        0.07660        1.05410
H         -6.58510       -0.93510        1.48780
H         -6.40620        0.79270        1.87080
H         -7.58390        0.27720        0.64420
O         -0.12090       -0.66250        3.84240
O          0.27270       -2.41710        2.04710
