62
L00126_lec.log
P         -1.22160        0.06980       -0.13260
C          0.07240        0.00500        0.98220
C          0.39930       -1.16720        1.75800
C          1.02670        1.09390        0.99850
C          2.40460       -0.09440        2.58360
H          2.84770        1.87690        1.80360
H          1.75270       -2.08820        3.13560
Cl         3.84370       -0.16480        3.57310
C          1.52610       -1.19980        2.54350
C          2.14740        1.04010        1.79610
H          0.87260        1.97150        0.36570
H         -0.25080       -2.04350        1.72370
C         -2.41700       -1.25260        0.12800
C         -2.92590       -1.43640        1.42250
C         -4.36310       -3.18160        0.61060
C         -2.90370       -2.03680       -0.92220
C         -3.87710       -3.00290       -0.68270
C         -3.89180       -2.40380        1.66960
H         -2.56270       -0.81810        2.24680
H         -4.28680       -2.55380        2.67490
H         -4.25230       -3.62370       -1.49690
Cl        -5.57650       -4.38760        0.91240
H         -2.50270       -1.91630       -1.92780
C         -2.12390        1.65580       -0.09180
C         -1.95810        2.52120        0.99580
C         -3.67290        3.96400        0.12050
C         -3.09980        1.94760       -1.05600
H         -1.22480        2.28620        1.77040
C         -3.87390        3.09910       -0.95490
C         -2.71970        3.68090        1.09870
Cl        -4.63170        5.40640        0.24960
H         -2.58230        4.36330        1.93830
H         -4.63500        3.32670       -1.70220
H         -3.27410        1.26630       -1.89280
N         -0.82750        0.08740       -1.83270
S          0.26450       -0.94070       -2.60020
H         -0.93380        0.96440       -2.33940
C          1.85320       -0.58720       -1.90110
C          2.39520       -1.45420       -0.96130
C          2.54820        0.54960       -2.31380
C          3.65380       -1.18110       -0.43070
H          1.83730       -2.33680       -0.64790
C          3.79750        0.80650       -1.76780
H          2.12350        1.21220       -3.07040
C          4.38470       -0.05620       -0.82540
H          4.05730       -1.86940        0.31050
H          4.33560        1.69670       -2.09980
C          5.78740        0.25050       -0.28440
C          6.30280       -0.85700        0.64350
H          7.31470       -0.60150        0.99270
H          5.66710       -0.97120        1.53360
H          6.36590       -1.82630        0.12530
C          5.74980        1.56890        0.50970
H          5.11920        1.46370        1.40430
H          6.76430        1.83890        0.84290
H          5.36220        2.40280       -0.09490
C          6.76420        0.38410       -1.46810
H          6.78170       -0.53730       -2.07020
H          6.49940        1.21810       -2.13460
H          7.78400        0.56930       -1.09670
O          0.25120       -0.49940       -3.98220
O         -0.10310       -2.29210       -2.21480
