119
L00102_lec-1.log
N         -0.65670       -0.43050       -1.11740
S          0.19790       -1.33740       -2.23000
H         -0.27130        0.51660       -1.03860
C          1.78320       -1.58470       -1.47650
C          2.73420       -0.57880       -1.56440
C          2.06480       -2.78130       -0.81990
C          3.97350       -0.75920       -0.95660
H          2.50340        0.34510       -2.09640
C          3.30650       -2.94360       -0.22100
H          1.31850       -3.57650       -0.79270
C          4.28370       -1.93430       -0.26440
H          4.69590        0.05350       -1.02400
H          3.51480       -3.88410        0.29290
C          5.63500       -2.15300        0.42670
C          6.51240       -0.89540        0.38160
H          6.76740       -0.60640       -0.64920
H          6.02100       -0.03940        0.86990
H          7.45740       -1.08370        0.91270
C          6.37680       -3.29850       -0.28680
H          7.35430       -3.47610        0.18850
H          5.80760       -4.23920       -0.24560
H          6.54940       -3.05540       -1.34630
C          5.40390       -2.52500        1.90290
H          6.36930       -2.67140        2.41180
H          4.85590       -1.72910        2.42850
H          4.82960       -3.45650        2.01120
O          0.38580       -0.48710       -3.38860
O         -0.44500       -2.63680       -2.35050
C          0.23610        2.78530       -0.79880
C          1.32980        1.59650        1.03190
C          2.68850        2.69170       -0.66950
C          2.56920        1.94420        0.50080
C          1.51360        3.08140       -1.30260
H          3.48010        1.63090        1.01760
C         -5.52770        0.20320       -2.01630
H         -6.22180       -0.31150       -1.32720
H         -5.97390        1.18670       -2.23150
C         -4.18020        0.39150       -1.31910
H         -3.52140        0.99880       -1.96050
H         -4.30970        0.95550       -0.38400
C          0.05140       -3.67440        2.15040
H          0.58050       -4.18110        1.32440
H          0.79140       -3.53580        2.95440
C         -0.44580       -2.31130        1.67150
H         -0.85830       -1.74320        2.52280
H          0.39320       -1.71880        1.28110
P         -1.95100       -0.76420       -0.05990
C         -3.51250       -0.96160       -1.04420
C         -3.35660       -1.77410       -2.33480
H         -4.16800       -1.52160       -0.35950
H         -5.36420       -2.57320       -2.38250
C         -5.39010       -0.61590       -3.29880
H         -6.37630       -0.77270       -3.76370
H         -4.78540       -0.04740       -4.02740
H         -4.57210       -2.51790       -3.96190
H         -2.89530       -2.75140       -2.13620
H         -2.66950       -1.24910       -3.01920
C         -4.71020       -1.95620       -3.02500
C         -1.98680        0.57630        1.05460
C         -3.13240        0.54050        1.93620
C         -2.69160        2.76270        2.77970
C         -1.15960        1.79260        1.11110
C         -1.55420        2.82530        1.97640
C         -3.48270        1.57380        2.75320
O         -3.83110       -0.63690        1.85780
H         -4.34920        1.49820        3.40990
O         -0.73620        3.92070        1.96600
H         -2.98350        3.58300        3.43110
C          0.13620        2.02320        0.39190
C         -1.53010       -2.44940        0.59840
C         -2.68880       -3.32860        1.08310
H         -1.73670       -5.22730        0.66510
H         -1.09800       -2.95030       -0.28300
C         -2.16670       -4.69560        1.53270
H         -3.19590       -2.83440        1.92340
H         -3.00600       -5.31160        1.89230
H         -1.55930       -4.11130        3.52060
H         -0.72810       -5.55160        2.91900
C         -1.10170       -4.55930        2.62070
H         -3.43400       -3.46330        0.28400
C         -1.02930        5.00120        2.79940
H         -2.00700        5.45590        2.55890
H         -0.24170        5.74780        2.63440
H         -1.02900        4.71280        3.86610
C         -5.10300       -0.72090        2.43230
H         -5.51570       -1.69880        2.14930
H         -5.76550        0.07930        2.05860
H         -5.05860       -0.65920        3.53340
C          4.05480        3.10820       -1.18730
C          4.30220        4.59680       -0.91350
H          4.18400        4.82630        0.15570
H          3.58360        5.21950       -1.46990
H          5.31730        4.89260       -1.22170
C          4.26770        2.77750       -2.66720
H          4.80270        2.53860       -0.60770
H          4.13390        1.70460       -2.87100
H          5.28510        3.05500       -2.98330
H          3.56260        3.32780       -3.30930
C          1.28240        0.83950        2.35140
C          2.33040       -0.27290        2.44230
H          2.13140       -0.91570        3.31420
H          3.34780        0.13280        2.56630
H          2.33800       -0.90820        1.54450
C          1.41870        1.80660        3.53400
H          0.28940        0.37550        2.42260
H          1.31500        1.26940        4.48990
H          0.65410        2.59230        3.48920
H          2.40670        2.29600        3.52210
C         -0.91490        3.34430       -1.64980
C         -1.17120        2.46040       -2.87940
H         -0.24660        2.24260       -3.43280
H         -1.87760        2.95410       -3.56500
H         -1.60460        1.49100       -2.59750
C         -2.22870        3.70170       -0.95580
H         -0.51700        4.29670       -2.03930
H         -2.76820        2.81760       -0.59470
H         -2.87850        4.22490       -1.67580
H         -2.06110        4.36670       -0.09920
H          1.57500        3.67860       -2.21770
