68
L00162_lec.log
P          1.42570        0.21440       -0.01950
C          0.19600        0.80510        1.00950
C         -0.08120        0.25700        2.31980
C         -2.01480        1.71860        2.57230
C         -0.73590        1.79330        0.50300
C         -1.14460        0.71830        3.06200
H          0.55540       -0.52720        2.73530
C         -1.78550        2.23210        1.27900
H         -1.31430        0.29540        4.05610
H         -2.45440        2.99720        0.87490
H         -2.84250        2.08580        3.18110
H         -0.60450        2.20140       -0.50310
C          2.33290        1.54850       -0.86830
C          2.35920        2.81390       -0.26760
C          3.87880        3.60270       -1.97230
C          3.09910        1.31690       -2.02060
H          1.77190        2.98950        0.63670
C          3.86920        2.34200       -2.56690
C          3.12180        3.83740       -0.82430
H          4.48080        4.40530       -2.40380
H          4.46510        2.15240       -3.46210
H          3.12710        4.82350       -0.35570
H          3.10220        0.33150       -2.49150
C          2.60140       -0.87110        0.86690
C          3.55970       -1.62520       -0.06500
C          3.37560       -0.07320        1.92990
H          1.95770       -1.62090        1.35810
C          4.48310       -2.53780        0.74350
H          4.17090       -0.89860       -0.62880
H          2.98810       -2.21540       -0.79260
C          4.30210       -0.99230        2.72830
H          3.97620        0.70410        1.42520
H          2.68310        0.45190        2.60430
C          5.25210       -1.76570        1.81480
H          5.18000       -3.05150        0.06340
H          3.87500       -3.32570        1.22110
H          4.86830       -0.39870        3.46270
H          3.68940       -1.70580        3.30730
H          5.87850       -2.45150        2.40650
H          5.94150       -1.05450        1.32540
N          0.94160       -0.67100       -1.46310
S         -0.02260       -2.03930       -1.43390
H          0.81870       -0.13710       -2.32170
C         -1.63740       -1.45720       -0.99570
C         -2.04320       -1.50150        0.33100
C         -2.45130       -0.89130       -1.97690
C         -3.26730       -0.94260        0.68680
H         -1.39930       -1.95170        1.08610
C         -3.66910       -0.34160       -1.60200
H         -2.13440       -0.89210       -3.02160
C         -4.09760       -0.34130       -0.26330
H         -3.54910       -0.96270        1.73790
H         -4.29970        0.10070       -2.37620
C         -5.43680        0.30840        0.10590
C         -5.69610        0.26740        1.61700
H         -5.76910       -0.76470        1.99250
H         -4.90080        0.78440        2.17530
H         -6.64940        0.76860        1.84320
C         -6.57530       -0.44020       -0.61090
H         -7.54810        0.00830       -0.35450
H         -6.46720       -0.40040       -1.70510
H         -6.59730       -1.49960       -0.31300
C         -5.42240        1.78240       -0.33850
H         -6.37170        2.27090       -0.06800
H         -4.60220        2.32630        0.15240
H         -5.29410        1.88540       -1.42610
O          0.48300       -2.85410       -0.33920
O         -0.05580       -2.51980       -2.80210
