148
L00171_lec.log
N          1.42880        1.29660        0.66320
S          2.64530        2.04270        1.52620
H          1.70650        1.07890       -0.30020
C          3.98420        0.90110        1.32570
C          5.04450        1.22440        0.49140
C          3.96470       -0.30170        2.03070
C          6.09580        0.31940        0.35160
H          5.04690        2.17870       -0.03750
C          5.00710       -1.19840        1.85790
H          3.14130       -0.52780        2.71040
C          6.09170       -0.91350        1.00990
H          6.92260        0.59220       -0.30280
H          4.97280       -2.14490        2.40070
C          7.20470       -1.95370        0.83110
C          8.33160       -1.44770       -0.07860
H          7.97240       -1.21860       -1.09350
H          8.81300       -0.54610        0.32970
H          9.10620       -2.22320       -0.17310
C          6.59920       -3.22250        0.20060
H          7.37330       -3.99650        0.08210
H          5.79380       -3.64460        0.81970
H          6.18080       -3.00740       -0.79470
C          7.81020       -2.29560        2.20510
H          8.62110       -3.03140        2.09010
H          8.22820       -1.39750        2.68470
H          7.06580       -2.72830        2.88930
O          2.23960        2.06140        2.92310
O          3.00190        3.28340        0.85820
C          1.95490       -1.48750       -1.36560
C          1.78980        0.69130       -2.45380
C          3.92720       -0.48620       -2.41000
C          3.15370        0.61330       -2.76870
C          3.31050       -1.51260       -1.68680
H          3.91530       -2.37090       -1.38220
H          3.60930        1.43620       -3.32200
C         -1.55730       -0.36780        4.72690
H         -0.86580        0.20040        5.37380
H         -2.54320       -0.33700        5.21640
C         -1.63980        0.32090        3.36180
H         -2.40640       -0.18440        2.75270
H         -1.96800        1.36260        3.49380
C         -1.26150        4.90470        2.42070
H         -2.29450        4.67960        2.74160
H         -0.81710        5.53380        3.20750
C         -0.46960        3.60160        2.30150
H          0.57490        3.84880        2.05730
H         -0.44250        3.07760        3.26830
P         -0.22240        1.07190        0.99680
C         -0.28090        0.25330        2.64990
C          0.18240       -1.20040        2.50820
H          0.45440        0.80800        3.25570
H          1.05160       -1.39830        4.47810
C         -1.06880       -1.81160        4.60640
H         -0.98550       -2.26990        5.60420
H         -1.81850       -2.40060        4.04960
H          0.57850       -2.93570        3.73910
H          1.14960       -1.24020        1.98700
H         -0.53460       -1.73990        1.86590
C          0.26900       -1.88680        3.87000
C         -0.91010        0.16020       -0.29450
C         -2.35210        0.00340       -0.16700
C         -2.51890       -1.01650       -2.35390
C         -0.30000       -0.36090       -1.51380
C         -1.11640       -0.89910       -2.48620
C         -3.12100       -0.57360       -1.15180
H         -2.86260        0.33070        0.74270
H         -0.63780       -1.27430       -3.39600
H         -3.12250       -1.47020       -3.14070
C          1.17580       -0.37640       -1.76760
C         -1.05100        2.70840        1.19670
C         -1.10490        3.44800       -0.14640
H         -2.92230        4.55600        0.19550
H         -2.08590        2.43460        1.47430
C         -1.86160        4.77100       -0.02020
H         -0.07310        3.64400       -0.48410
H         -1.84090        5.30000       -0.98600
H         -0.26600        5.95970        0.82450
H         -1.88410        6.57850        1.18250
C         -1.29340        5.65370        1.08950
H         -1.58020        2.80790       -0.90550
H         -7.57580        0.82490       -1.28050
C         -5.50040        0.23440       -1.28770
C         -6.85750        0.04730       -1.00540
C         -4.58400       -0.76570       -0.91670
C         -7.32870       -1.10470       -0.37790
C         -5.03970       -1.95060       -0.30280
C         -6.40290       -2.09430       -0.03980
H         -6.75600       -3.00800        0.44660
C         -8.80740       -1.28130       -0.07840
C         -9.40150       -2.46860       -0.84360
H         -9.23330       -2.36600       -1.92590
H        -10.48620       -2.54600       -0.66890
H         -8.94280       -3.41750       -0.52260
C         -9.07030       -1.39930        1.42660
H         -9.31800       -0.36990       -0.43310
H         -8.59960       -2.30450        1.84260
H        -10.15040       -1.46040        1.63340
H         -8.66450       -0.53230        1.96890
C         -4.06020       -3.04280        0.10870
C         -3.72380       -2.93520        1.60030
H         -2.97690       -3.69130        1.89250
H         -4.62150       -3.08360        2.22240
H         -3.31190       -1.94250        1.83200
C         -4.54440       -4.44930       -0.25180
H         -3.12820       -2.86810       -0.44850
H         -3.75370       -5.18860       -0.04980
H         -4.80980       -4.51640       -1.31740
H         -5.42660       -4.74910        0.33590
C         -5.02090        1.52230       -1.94300
C         -5.90940        1.97520       -3.10390
H         -6.04890        1.16680       -3.83700
H         -5.45140        2.83150       -3.62300
H         -6.90590        2.29810       -2.76290
C         -4.86380        2.63320       -0.89890
H         -4.02180        1.31980       -2.35710
H         -4.48620        3.55830       -1.36330
H         -4.15450        2.33110       -0.11360
H         -5.82790        2.86220       -0.41630
C          5.38110       -0.64320       -2.82140
C          6.07520        0.66540       -3.19160
H          5.68460        1.07740       -4.13550
H          7.15440        0.50030       -3.33260
H          5.94470        1.43260       -2.41400
C          5.50760       -1.66620       -3.95820
H          5.90360       -1.06120       -1.94580
H          4.98130       -1.31140       -4.85840
H          5.06920       -2.63510       -3.67670
H          6.56400       -1.83230       -4.22210
C          0.98510        1.90930       -2.88640
C          1.70340        3.23150       -2.59980
H          1.02410        4.07820       -2.78440
H          2.57940        3.37490       -3.25240
H          2.05040        3.29660       -1.55670
C          0.58540        1.79870       -4.36140
H          0.05510        1.90170       -2.29970
H         -0.02370        2.66410       -4.66580
H         -0.00330        0.88780       -4.54020
H          1.47630        1.76470       -5.00940
C          1.31150       -2.67530       -0.66410
C          0.86650       -3.72940       -1.68600
H          0.15050       -3.30840       -2.40410
H          0.38000       -4.57820       -1.18000
H          1.73200       -4.11690       -2.24780
C          2.20510       -3.31340        0.40200
H          0.40530       -2.30030       -0.16690
H          3.04870       -3.86470       -0.04400
H          1.62660       -4.03490        0.99930
H          2.62620       -2.56150        1.08380
