72
L00212_lec.log
P         -1.18360       -0.76580       -0.04440
C          0.30950       -1.19360       -1.00530
C          1.31610       -1.92980       -0.36140
C          0.45340       -0.87690       -2.36460
C          2.57980       -2.02610       -2.41840
H          1.68220       -1.04990       -4.12320
H          3.22350       -2.90530       -0.55110
H          3.46400       -2.35330       -2.97000
C          2.44670       -2.33420       -1.06360
C          1.58040       -1.30070       -3.06500
H         -0.30440       -0.27660       -2.87060
H          1.20680       -2.20200        0.69070
C         -2.56310       -0.71880       -1.22380
C         -2.61150       -1.70950       -2.21580
C         -4.65160       -0.77510       -3.08420
C         -3.59380        0.23860       -1.14310
C         -4.61910        0.20340       -2.09580
C         -3.65190       -1.74450       -3.13780
H         -1.82290       -2.46290       -2.26860
H         -3.67830       -2.52680       -3.89870
H         -5.41150        0.95280       -2.03820
H         -5.46770       -0.78720       -3.80990
C         -3.63390        1.27400       -0.07240
C         -1.60740       -1.69500        1.33720
C         -2.77000       -2.54590        1.36430
C         -2.17220       -3.35090        3.58360
C         -0.74250       -1.71360        2.49300
H         -3.45150       -2.56240        0.51040
C         -1.03500       -2.52690        3.57180
C         -3.03220       -3.33390        2.46160
H         -2.39130       -3.98670        4.44240
H         -3.92770       -3.96090        2.45840
H         -0.36810       -2.51420        4.43840
H          0.13190       -1.05840        2.52840
N         -0.71310        0.77190        0.59100
S          0.13920        2.02570       -0.12760
H         -1.29840        1.12000        1.35290
C          1.82960        1.50260        0.01500
C          2.61080        1.38020       -1.12290
C          2.35230        1.22020        1.27720
C          3.92710        0.93640       -1.00060
H          2.18160        1.60630       -2.09940
C          3.66220        0.77830        1.37910
H          1.73240        1.33450        2.16870
C          4.47640        0.61580        0.24350
H          4.51620        0.82920       -1.91050
H          4.05780        0.54980        2.37090
C          5.91000        0.09570        0.40840
C          6.62840       -0.05320       -0.93840
H          6.72110        0.90990       -1.46300
H          7.64590       -0.43900       -0.77500
H          6.10770       -0.76060       -1.60210
C          5.87020       -1.28530        1.08860
H          6.89070       -1.68060        1.21080
H          5.40880       -1.24140        2.08600
H          5.29570       -2.00240        0.48310
C          6.70750        1.08200        1.28130
H          6.74030        2.07930        0.81680
H          6.26690        1.19210        2.28320
H          7.74280        0.72870        1.40890
O         -0.07300        3.16660        0.74590
O         -0.19840        2.09190       -1.54190
C         -3.35820        2.61080       -0.37620
C         -3.90400        0.90860        1.25220
C         -3.57300        3.19740        1.95660
C         -3.87120        1.86950        2.26240
C         -3.32140        3.56660        0.63620
H         -3.11340        2.88900       -1.40320
H         -3.06480        4.59960        0.39600
H         -3.52830        3.94560        2.75070
H         -4.07200        1.57360        3.29420
H         -4.11840       -0.13410        1.49700
