53
L00236_lec.log
P         -1.51880        0.14850       -0.15700
C         -3.13280        0.93550       -0.10310
C         -3.58260        1.96510       -0.92260
S         -4.48730        0.11070        0.62380
H         -2.90990        2.59420       -1.50650
C         -4.99180        2.09690       -0.92320
C         -5.61810        1.15700       -0.14310
H         -5.52910        2.85830       -1.48940
H         -6.68660        1.02340        0.01870
C         -1.17150       -1.32020       -1.04750
S         -0.45710       -1.36900       -2.64830
C         -1.79150       -2.54340       -0.76180
H         -2.29070       -2.74580        0.18430
H         -0.68580       -3.52850       -3.80060
C         -0.95220       -3.00780       -2.88240
C         -1.64650       -3.48940       -1.80230
H         -2.03690       -4.50610       -1.74940
C         -0.32610        1.40360       -0.50690
C          0.82430        1.36350       -1.27910
S         -0.44540        2.93060        0.32710
H          1.14660        0.48580       -1.83790
C          1.00150        3.50710       -0.39790
C          1.56240        2.57250       -1.22750
H          2.48190        2.74500       -1.78730
H          1.35530        4.51470       -0.18540
N         -1.50870       -0.39430        1.48250
S         -0.35810       -1.31560        2.31670
H         -1.98850        0.21960        2.14050
C          1.17880       -0.86830        1.55400
C          1.80890        0.31060        1.93750
C          1.72690       -1.69550        0.57740
C          3.00110        0.67290        1.31740
H          1.36920        0.93820        2.71450
C          2.91770       -1.31550       -0.02820
H          1.21600       -2.61780        0.29680
C          3.57610       -0.12570        0.32060
H          3.47630        1.60430        1.62200
H          3.33830       -1.97000       -0.79390
C          4.88990        0.24560       -0.37920
C          5.38360        1.64060        0.02470
H          4.64010        2.41810       -0.20920
H          5.61800        1.69950        1.09820
H          6.30570        1.88170       -0.52530
C          4.68750        0.22950       -1.90560
H          5.62190        0.51110       -2.41540
H          4.39630       -0.76350       -2.27680
H          3.90650        0.94250       -2.20890
C          5.96360       -0.78850        0.00780
H          6.92210       -0.54640       -0.47790
H          6.12350       -0.79930        1.09670
H          5.67730       -1.80520       -0.30000
O         -0.59080       -2.72410        2.07050
O         -0.41070       -0.77660        3.66530
