64
L00284_lec.log
P         -1.56940        0.06120       -0.12410
C         -3.14600        0.96780       -0.20720
C         -4.18610        0.56790       -1.05890
C         -5.40940        2.58760       -0.53780
C         -3.23670        2.20700        0.45170
H         -4.11890       -0.37320       -1.60850
C         -5.31290        1.37090       -1.21340
C         -4.36510        3.00490        0.28710
H         -4.42620        3.96410        0.80560
H         -6.29470        3.21470       -0.66160
H         -6.12200        1.04260       -1.86930
H         -2.40540        2.56290        1.06540
C         -1.72420       -1.58520       -0.81120
C         -2.80690       -2.36980       -0.38010
C         -0.74650       -2.15710       -1.63870
C         -1.98240       -4.23410       -1.67170
H         -3.53640       -1.95750        0.31980
C         -2.93680       -3.68270       -0.81770
C         -0.88540       -3.47150       -2.07270
H         -0.12120       -3.90740       -2.71940
H         -3.78010       -4.28470       -0.47450
H         -2.08330       -5.26730       -2.01020
H          0.14150       -1.59130       -1.91720
C         -0.23060        1.01340       -0.70910
C          0.36790        0.97560       -2.00320
H          0.05940        0.24650       -2.75250
N          0.03570        2.02470        0.18240
C          1.31170        1.92510       -2.30680
C          0.95220        2.93550       -0.13820
H          1.78470        1.92860       -3.29170
H          2.38720        3.68590       -1.57660
C          1.64620        2.91740       -1.35180
C          1.22810        3.98850        0.90150
N         -1.46010       -0.14770        1.57850
S         -0.38910       -1.17410        2.39090
H         -1.63140        0.68690        2.13630
C          1.17370       -0.89850        1.60570
C          1.85880        0.28460        1.85490
C          1.66020       -1.83540        0.69700
C          3.02160        0.55500        1.14020
H          1.47060        1.00040        2.58030
C          2.82650       -1.54960        0.00020
H          1.11460       -2.76670        0.53820
C          3.51770       -0.34050        0.18630
H          3.52990        1.50020        1.32570
H          3.19960       -2.28720       -0.71320
C          4.77820       -0.05110       -0.63780
C          5.87960       -1.04620       -0.22890
H          6.79710       -0.86260       -0.81020
H          6.12430       -0.94480        0.83950
H          5.57160       -2.08770       -0.40580
C          5.29270        1.37690       -0.41590
H          4.52460        2.12260       -0.67370
H          5.60660        1.54480        0.62550
H          6.16980        1.55850       -1.05510
C          4.45770       -0.21520       -2.13460
H          4.16340       -1.24510       -2.38480
H          3.63540        0.45320       -2.42940
H          5.34300        0.03110       -2.74150
O         -0.79420       -2.53860        2.11620
O         -0.36400       -0.64170        3.74100
H          1.67580        3.52790        1.79670
H          0.28900        4.46470        1.21960
H          1.91230        4.76390        0.53140
