92
L00246_lec.log
P         -1.03560        0.04400        0.22890
C         -0.70340        1.55650       -0.53370
C         -1.52710        2.67250       -0.16160
C          0.48050        1.84140       -1.29220
C         -0.02740        4.20330       -1.26530
C          2.04700        3.41490       -2.46740
C         -2.07920        5.12420       -0.11260
O          0.30700        5.48010       -1.65080
C         -1.20330        3.97000       -0.52200
C          0.80900        3.13140       -1.65810
H          1.16610        1.03930       -1.56390
H         -2.41520        2.51050        0.45530
C         -2.76840       -0.49350        0.01760
C         -3.58530        0.14160       -0.92190
C         -5.33360       -1.45130       -0.48930
C         -3.23680       -1.64390        0.66470
C         -4.51910       -2.13920        0.42360
C         -4.87720       -0.31710       -1.18000
H         -3.20580        1.00910       -1.46740
C         -5.76540        0.36080       -2.18750
C         -5.01990       -3.38430        1.10450
O         -6.58420       -1.93070       -0.76450
H         -2.59060       -2.19030        1.35850
C          0.06870       -1.26560       -0.30800
C          0.47910       -1.35820       -1.64640
C          1.88990       -3.22280       -1.09420
C          0.52700       -2.21850        0.60840
H          0.08350       -0.66140       -2.38800
C          1.44480       -3.19840        0.23430
C          1.40300       -2.31830       -2.05350
O          2.86450       -4.11870       -1.44220
C          1.88670       -2.37670       -3.47770
C          2.00290       -4.16970        1.23790
H          0.19700       -2.16560        1.64690
N         -1.01800       -0.00540        1.99100
S         -0.01720        0.88860        3.01960
H         -1.87650       -0.25460        2.48390
C          1.56920        0.61790        2.28490
C          2.26020       -0.55750        2.56000
C          2.05960        1.54190        1.36610
C          3.40110       -0.85910        1.82340
H          1.88400       -1.24250        3.32210
C          3.20150        1.22300        0.64400
H          1.52270        2.47480        1.19060
C          3.86460       -0.00260        0.81720
H          3.90770       -1.80310        2.02090
H          3.55360        1.93780       -0.10230
C          5.03710       -0.36500       -0.10160
C          5.52380       -1.80290        0.12120
H          5.89860       -1.95870        1.14430
H          4.72890       -2.53760       -0.08210
H          6.35470       -2.02040       -0.56680
C          6.20330        0.60490        0.15800
H          7.05050        0.37310       -0.50660
H          5.91010        1.64990       -0.02350
H          6.55310        0.52920        1.19890
C          4.57170       -0.24540       -1.56540
H          5.38090       -0.54720       -2.24870
H          3.70420       -0.89700       -1.74720
H          4.28320        0.78340       -1.82610
O         -0.11040        0.20230        4.29910
O         -0.33590        2.30170        2.92810
C          1.03740        6.21670       -0.70210
H          0.45920        6.38670        0.22310
H          1.97950        5.70860       -0.42670
H          1.27810        7.18950       -1.15230
C         -7.60990       -1.45870        0.07790
H         -7.44690       -1.75820        1.12770
H         -7.69380       -0.35870        0.03970
H         -8.55060       -1.90000       -0.27520
C          2.41290       -5.33730       -1.98560
H          1.73920       -5.86700       -1.29000
H          1.87930       -5.18620       -2.93970
H          3.29780       -5.96000       -2.16890
H          2.94180       -2.68160       -3.51810
H          1.78300       -1.39900       -3.96800
H          1.30860       -3.10490       -4.06970
H          1.66700       -5.19980        1.04070
H          1.68880       -3.90520        2.25680
H          3.10230       -4.18090        1.19980
H         -5.19620        1.07890       -2.79270
H         -6.58210        0.91330       -1.69600
H         -6.23300       -0.37670       -2.85500
H         -4.18390       -4.00700        1.45120
H         -5.64530       -3.97630        0.42220
H         -5.63610       -3.14040        1.98520
H          1.80400        3.99110       -3.37250
H          2.54280        2.48120       -2.76970
H          2.77460        4.01690       -1.89900
H         -2.08890        5.90310       -0.88810
H         -1.71430        5.58680        0.81900
H         -3.11050        4.79220        0.07050
