74
L00249_lec.log
P         -1.20650        0.25340        0.42700
C          0.20290        0.34540        1.38800
C          1.24090        1.27480        0.99290
C          0.48130       -0.56660        2.46380
C          2.66720        0.46160        2.79020
H          1.86990       -1.16590        3.96710
O          3.44320        2.17790        1.39750
H          3.61090        0.53390        3.33020
C          2.42910        1.32470        1.69950
C          1.68040       -0.48080        3.13660
H         -0.25890       -1.31460        2.75270
H          1.08340        1.91630        0.12580
C         -2.45910       -0.83620        1.13090
C         -2.93310       -0.55330        2.41570
C         -4.43090       -2.44740        2.25330
C         -2.97450       -1.90900        0.39690
C         -3.95540       -2.72760        0.96470
C         -3.92050       -1.37050        2.96690
H         -2.53420        0.29250        2.97900
H         -4.29800       -1.16170        3.97000
O         -4.48180       -3.79860        0.34390
H         -5.19960       -3.09710        2.67530
H         -2.57160       -2.12370       -0.58950
C         -1.99820        1.86690        0.09980
C         -3.10370        1.92090       -0.76690
C         -3.37360        4.26740       -0.24140
C         -1.60050        2.99750        0.81190
H         -3.42740        1.01680       -1.28470
C         -2.29100        4.19790        0.62240
C         -3.79480        3.12300       -0.93730
H         -3.92660        5.19600       -0.39170
O         -4.86630        3.27310       -1.73810
H         -1.97900        5.09190        1.16660
H         -0.76220        2.94000        1.50850
N         -0.99700       -0.19400       -1.26310
S         -0.06750       -1.43600       -1.90080
H         -1.15520        0.53270       -1.95930
C          1.60870       -1.09950       -1.43790
C          2.35890       -0.21280       -2.20260
C          2.15810       -1.72690       -0.32320
C          3.67870        0.04420       -1.84160
H          1.92240        0.25380       -3.08760
C          3.47660       -1.45740        0.01840
H          1.55640       -2.41580        0.27000
C          4.26890       -0.57480       -0.73090
H          4.25520        0.73180       -2.46000
H          3.89140       -1.95360        0.89650
C          5.74660       -0.37460       -0.36840
C          6.37430        0.79270       -1.14170
H          7.41630        0.93290       -0.81720
H          6.39390        0.61230       -2.22710
H          5.83680        1.73490       -0.95370
C          6.50000       -1.66950       -0.72920
H          6.11080       -2.52970       -0.16390
H          6.40270       -1.89900       -1.80160
H          7.57140       -1.56680       -0.49480
C          5.90250       -0.08700        1.13460
H          5.35180        0.82180        1.41500
H          5.53010       -0.91300        1.75730
H          6.96750        0.05270        1.37790
O         -0.19830       -1.27120       -3.33850
O         -0.46770       -2.66780       -1.23810
C         -3.98780       -4.15530       -0.92440
H         -4.20960       -3.38010       -1.67830
H         -2.89880       -4.32730       -0.90690
H         -4.49910       -5.08270       -1.20790
C         -5.34950        2.16360       -2.44830
H         -4.59580        1.76840       -3.15150
H         -5.66770        1.35220       -1.77120
H         -6.21840        2.51110       -3.01950
C          3.29050        3.05980        0.32370
H          3.15180        2.52160       -0.63060
H          2.43560        3.74340        0.47310
H          4.21210        3.65340        0.26790
