80
L00253_lec.log
P         -1.00340        0.00640        0.15320
C          0.33370        0.74460       -0.62570
C          1.35270       -1.44740       -1.40140
C          0.49120        2.17510       -0.55030
C          1.33510       -0.04180       -1.35730
C          2.41430        2.09030       -2.02280
C          2.28630       -2.15560       -2.15270
H          0.61750       -2.01730       -0.83200
C          2.34920        0.66530       -2.08370
C          1.50670        2.80930       -1.23510
H         -0.20180        2.76550        0.05100
C          3.28000       -0.07920       -2.84630
H          3.19510        2.60840       -2.58330
H          2.25860       -3.24730       -2.16030
C          3.25250       -1.46470       -2.88710
H          1.59410        3.89630       -1.16470
H          3.98320       -2.01000       -3.48940
H          4.03460        0.46730       -3.41870
C         -2.15100        1.23870        0.84200
C         -2.91960        2.09110       -0.02670
C         -2.34880        1.28020        2.20570
C         -2.74130        2.15630       -1.43660
H         -1.75040        0.65140        2.86550
C         -3.90770        2.93620        0.56190
C         -3.31350        2.14100        2.77700
C         -3.51750        2.98160       -2.21300
H         -1.95880        1.56340       -1.90790
C         -4.08360        2.93780        1.97250
H         -3.43960        2.15400        3.86090
C         -4.69700        3.77660       -0.26940
C         -4.51330        3.79710       -1.62890
H         -3.35460        3.01380       -3.29210
H         -4.84250        3.59480        2.40480
H         -5.45220        4.41280        0.19840
H         -5.12370        4.44770       -2.25830
C         -2.03640       -1.10910       -0.88160
C         -1.74120       -1.13530       -2.22870
C         -3.14890       -1.86680       -0.37440
C         -3.56780       -1.86590        0.98760
C         -4.64010       -2.61730        1.40460
H         -3.04450       -1.25370        1.71960
C         -3.53600       -2.67620       -2.67170
H         -0.90870       -0.53970       -2.60850
C         -3.89550       -2.66380       -1.29720
C         -2.48680       -1.92410       -3.13090
C         -4.99790       -3.43090       -0.83210
H         -4.11870       -3.29390       -3.35950
H         -4.93670       -2.59190        2.45500
H         -2.21610       -1.92990       -4.18800
C         -5.36440       -3.41430        0.48980
H         -6.21310       -4.00740        0.83550
H         -5.55270       -4.03610       -1.55320
N         -0.54030       -1.11030        1.37560
S          0.60700       -0.97730        2.61700
H         -0.89030       -2.06590        1.32570
C          2.15020       -0.59910        1.85340
C          2.93950       -1.63300        1.36380
C          2.56170        0.72860        1.76000
C          4.15940       -1.32710        0.76950
H          2.60540       -2.66780        1.45160
C          3.78110        1.01130        1.16260
H          1.93030        1.52780        2.14800
C          4.60810       -0.00530        0.65880
H          4.76100       -2.14810        0.38230
H          4.08710        2.05500        1.09010
C          5.98950        0.33460        0.08440
C          6.54490       -0.80760       -0.77830
H          7.49810       -0.49870       -1.23330
H          6.74930       -1.71310       -0.18780
H          5.84620       -1.06980       -1.58680
C          6.94190        0.57640        1.27170
H          7.01310       -0.31810        1.90920
H          7.95290        0.82210        0.90910
H          6.59210        1.41040        1.89910
C          5.92840        1.60190       -0.78400
H          5.19770        1.48570       -1.59560
H          5.65140        2.49500       -0.20610
H          6.91640        1.79710       -1.22850
O          0.64150       -2.32310        3.16110
O          0.24010        0.16030        3.44540
