112
L00368-tbp.log
N          0.82680       -0.11930       -0.84950
S         -0.08710       -0.23750       -2.23380
H          0.93180        0.85690       -0.55480
C         -1.74030       -0.57940       -1.68750
C         -2.47690        0.43890       -1.09530
C         -2.26730       -1.86220       -1.81090
C         -3.74050        0.15870       -0.58470
H         -2.05390        1.43980       -1.01000
C         -3.53630       -2.12020       -1.30560
H         -1.68530       -2.64360       -2.30190
C         -4.29550       -1.12510       -0.67000
H         -4.29500        0.97070       -0.11410
H         -3.93960       -3.12960       -1.40940
C         -5.68620       -1.46330       -0.11810
C         -6.33410       -0.26400        0.58520
H         -5.72940        0.08630        1.43600
H         -6.48950        0.58190       -0.10140
H         -7.32000       -0.55390        0.97800
C         -5.56730       -2.61240        0.89960
H         -6.56000       -2.86740        1.30190
H         -5.14830       -3.52380        0.44850
H         -4.91910       -2.32710        1.74160
C         -6.59380       -1.89470       -1.28520
H         -7.60290       -2.13430       -0.91510
H         -6.68420       -1.09060       -2.03120
H         -6.20540       -2.78730       -1.79750
O          0.36520       -1.39640       -2.98630
O         -0.06480        1.09400       -2.80890
C         -0.28740        1.93510        1.70770
C          1.52160        2.78910        0.33460
C         -0.79510        3.58670        0.01510
C          0.55520        3.58030       -0.31320
C         -1.20540        2.76530        1.06830
H         -2.24740        2.75350        1.37880
H          0.88560        4.23430       -1.11880
C         -0.13560       -4.54140        2.04050
H         -0.56290       -5.07730        1.17400
H          0.33710       -5.30380        2.67910
C          0.92390       -3.55410        1.54800
H          1.40470       -3.07020        2.41570
H          1.71870       -4.09740        1.01510
C          3.51330       -4.10860       -2.32460
H          4.14800       -4.57310       -1.54800
H          3.12650       -4.93190       -2.94540
C          2.34290       -3.38060       -1.65840
H          1.66000       -2.99920       -2.42870
H          1.77340       -4.09260       -1.04370
P          1.60850       -1.25530        0.15970
C          0.29730       -2.46010        0.66430
C         -0.80820       -1.74080        1.44500
H         -0.12210       -2.91790       -0.25160
H         -2.39400       -3.16160        1.08550
C         -1.25410       -3.82850        2.79890
H         -2.02690       -4.54890        3.11040
H         -0.83870       -3.38990        3.72310
H         -2.62940       -2.16790        2.52570
H         -1.27740       -0.96210        0.82900
H         -0.34420       -1.21790        2.29700
C         -1.86840       -2.71820        1.94890
C          2.38890       -0.36820        1.42610
C          3.40760       -1.09970        2.16740
C          3.30110        0.44740        4.03620
C          1.93760        0.88930        2.04380
C          2.37460        1.21450        3.31600
C          3.83960       -0.70160        3.40560
H          3.85510       -2.00020        1.74180
H          4.61670       -1.28580        3.90580
H          2.01150        2.15340        3.74530
H          3.62970        0.75320        5.02990
C          1.08090        1.88850        1.33410
C          2.85760       -2.20560       -0.81060
C          3.71040       -1.24490       -1.65340
H          5.56420       -2.34930       -1.56320
H          3.50570       -2.63010       -0.02610
C          4.86350       -1.98160       -2.33390
H          3.06480       -0.78640       -2.42060
H          5.43070       -1.27670       -2.96120
H          3.75080       -2.77590       -4.00420
H          5.20990       -3.69940       -3.61810
C          4.36210       -3.15880       -3.16850
H          4.09440       -0.43040       -1.02180
O         -0.64910        1.11200        2.71970
C         -1.99620        0.99760        3.07240
H         -2.04610        0.24420        3.86870
H         -2.61660        0.65840        2.22220
H         -2.40670        1.94720        3.45830
C          2.98020        3.02010       -0.14760
C          4.08270        2.30020        0.64200
H          4.00110        1.20970        0.58290
H          4.08020        2.57460        1.70480
H          5.05660        2.59250        0.21840
C          3.28950        4.52960       -0.03240
H          4.33090        4.71840       -0.33580
H          3.17190        4.87080        1.00760
H          2.64580        5.15360       -0.66780
C          3.09190        2.58710       -1.62280
H          2.89360        1.51220       -1.73330
H          4.10870        2.78290       -1.99850
H          2.38110        3.11700       -2.27300
C         -1.76410        4.49660       -0.75420
C         -1.40910        5.96440       -0.45300
H         -1.49880        6.17710        0.62340
H         -2.08370        6.64510       -0.99670
H         -0.37770        6.19840       -0.75580
C         -1.63370        4.23450       -2.26630
H         -0.63030        4.48220       -2.64030
H         -2.35700        4.85140       -2.82250
H         -1.81320        3.17780       -2.51330
C         -3.22490        4.26050       -0.34830
H         -3.39980        4.48190        0.71570
H         -3.54100        3.22380       -0.54330
H         -3.88460        4.91900       -0.93300
