100
L00306_lec.log
P          1.44050        0.04900        0.37320
C          2.85340       -0.60800       -0.68730
C          3.93190       -2.81180       -1.30380
C          3.81760       -2.46760       -2.79340
H          1.80070       -0.66250       -2.60260
C          2.78540       -2.14950       -0.52630
H          2.76290        0.80150       -2.37320
H          2.85020       -2.42960        0.53530
C          3.89930       -0.94580       -2.96350
C          2.74430       -0.28080       -2.19490
H          2.86220       -2.84060       -3.19700
H          4.62570       -2.95790       -3.36170
C          1.37220       -0.74560        1.95750
C          2.63600       -0.73630        2.67160
C          2.36160       -3.04320        3.35860
C          0.50740       -1.91420        2.20830
C          1.07620       -3.03550        2.83520
C          3.11010       -1.83450        3.33860
H          3.25350        0.16350        2.67640
H          4.06000       -1.76920        3.87530
H          0.43970       -3.90790        3.00870
H          2.74550       -3.92840        3.86800
C         -0.95370       -1.89840        2.02430
C          1.42830        1.92130        0.51790
C          1.81140        4.17830       -0.54750
H         -0.68050        2.03680       -0.00130
C          0.35330        4.56390       -0.26730
C         -0.11780        3.86270        1.01350
H         -0.28290        4.26850       -1.11790
H          0.26330        5.65740       -0.15740
H          2.96580        2.40220       -0.95510
H         -0.37760        1.82730        1.72850
C          1.91620        2.65840       -0.74930
C         -0.02690        2.34340        0.82290
N          0.00420       -0.46110       -0.38650
S         -0.67990       -0.24570       -1.89490
H         -0.44830       -1.23010        0.11730
C         -2.40820       -0.15170       -1.51330
C         -3.17290       -1.31020       -1.54790
C         -2.98970        1.08320       -1.22610
C         -4.53310       -1.23370       -1.25780
H         -2.70880       -2.26480       -1.79910
C         -4.34400        1.13540       -0.93310
H         -2.38950        1.99340       -1.25140
C         -5.14420       -0.01960       -0.93230
H         -5.11180       -2.15620       -1.27730
H         -4.78750        2.10680       -0.70550
C         -6.63150        0.09080       -0.57490
C         -7.33200       -1.27340       -0.59080
H         -8.39080       -1.14910       -0.31870
H         -7.29990       -1.74000       -1.58700
H         -6.88470       -1.97190        0.13300
C         -7.32980        1.00970       -1.59440
H         -6.90380        2.02390       -1.59280
H         -7.23700        0.60670       -2.61440
H         -8.40140        1.09800       -1.35680
C         -6.76510        0.68740        0.83890
H         -6.26200        0.05290        1.58430
H         -6.32790        1.69450        0.90470
H         -7.82680        0.76690        1.11990
O         -0.47230       -1.45120       -2.68030
O         -0.22990        1.04380       -2.39560
C         -1.67010       -3.05420        1.63390
C         -1.71160       -0.73420        2.28150
C         -3.78520       -1.89570        1.83620
C         -3.09760       -0.73170        2.18530
C         -3.05910       -3.05340        1.55650
H         -3.58060       -3.96770        1.26190
H         -4.87500       -1.89670        1.76780
H         -3.65100        0.18560        2.40230
H         -1.18120        0.16550        2.59680
H          1.81710       -2.51460       -0.90560
C          5.27370       -2.30690       -0.75610
H          3.86150       -3.90200       -1.16440
C          5.24340       -0.43590       -2.43070
H          3.79670       -0.68480       -4.02870
C          5.35980       -0.78580       -0.94240
H          6.07430       -0.89170       -2.99440
H          5.31940        0.65570       -2.57140
H          6.31900       -0.41690       -0.54530
C          4.22030       -0.10990       -0.16300
H          5.36510       -2.56300        0.31230
H          6.10860       -2.79910       -1.28200
H          4.30280        0.98290       -0.27460
H          4.32910       -0.34440        0.90420
H          1.31830        2.35350       -1.61710
C          2.69700        4.60180        0.63050
H          2.15430        4.67390       -1.46940
C          0.76430        4.28630        2.19400
H         -1.16780        4.12610        1.21920
C          2.21660        3.88960        1.90090
H          0.69300        5.37500        2.35290
H          0.41750        3.80050        3.12090
H          2.85710        4.17020        2.75190
C          2.30520        2.36570        1.71480
H          3.74970        4.34470        0.42480
H          2.65420        5.69480        0.76940
H          1.95920        1.86740        2.63190
H          3.35660        2.08040        1.55240
H         -1.11960       -3.96520        1.38730
