112
L00364_lec.log
P         -0.57420        0.33980        0.21310
C          0.36960       -1.05700        0.91930
C          1.63830       -0.83890        1.45390
C         -0.21710       -2.32060        0.97900
C          1.76680       -3.17310        2.06970
C         -0.10100       -4.76200        1.52250
C          3.69640       -1.68210        2.62850
H          2.31670       -4.00520        2.51170
C          2.33380       -1.89980        2.02400
C          0.49250       -3.37640        1.54850
H         -1.21560       -2.48910        0.56670
H          2.08320        0.15800        1.42190
C         -2.19680        0.19450        1.01090
C         -2.19130        0.25370        2.42510
C         -4.57910       -0.08810        2.42480
C         -3.39000        0.00400        0.31300
C         -4.59290       -0.14940        1.03510
C         -3.38480        0.11660        3.12030
O         -0.98820        0.44910        3.00360
H         -3.40730        0.16600        4.20850
O         -5.70180       -0.35290        0.29500
H         -5.50030       -0.19720        2.99680
C         -3.44170       -0.07880       -1.16740
C          0.08930        1.90580        0.40840
C         -0.56320        2.95070        1.14210
C          1.21110        4.52160        0.53590
C          1.33460        2.21980       -0.24610
H         -1.51470        2.75740        1.63750
C          1.85560        3.49710       -0.17110
C         -0.01620        4.20510        1.19150
H          1.62990        5.52510        0.58320
C         -0.70930        5.30180        1.94640
C          3.17700        3.75050       -0.84800
H          1.86500        1.45560       -0.81470
N         -0.48630       -0.03830       -1.45040
S          0.10240       -1.31710       -2.39540
H         -0.90390        0.66090       -2.06550
C          1.85180       -1.25650       -2.11970
C          2.48410       -2.26760       -1.40960
C          2.56840       -0.15940       -2.60170
C          3.85060       -2.16070       -1.14860
H          1.90690       -3.12070       -1.04770
C          3.92310       -0.06790       -2.32510
H          2.06650        0.62370       -3.17250
C          4.59490       -1.06060       -1.58890
H          4.32740       -2.95410       -0.57360
H          4.46490        0.80770       -2.68550
C          6.09480       -0.90270       -1.31420
C          6.65300       -2.05870       -0.47570
H          7.72710       -1.89910       -0.29840
H          6.16200       -2.12680        0.50530
H          6.54480       -3.02720       -0.98790
C          6.33270        0.41430       -0.55220
H          7.40740        0.54260       -0.34940
H          5.99280        1.29190       -1.11950
H          5.79980        0.41320        0.40880
C          6.84370       -0.86720       -2.65980
H          7.92640       -0.76460       -2.48750
H          6.67390       -1.79290       -3.23100
H          6.52460       -0.02020       -3.28480
O         -0.18020       -0.88350       -3.75090
O         -0.39370       -2.58500       -1.89040
C         -3.54020       -1.34070       -1.76810
C         -3.36590        1.07780       -1.95650
C         -3.49250       -0.29680       -3.92880
C         -3.39330        0.96720       -3.35280
C         -3.56520       -1.45390       -3.16220
O         -3.56050       -2.37930       -0.91170
H         -3.59840       -2.42740       -3.64840
H         -3.48620       -0.38250       -5.01700
H         -3.32350        1.84600       -3.99160
O         -3.23410        2.23380       -1.27470
C         -0.88430        0.52720        4.40030
H         -1.45500        1.38300        4.79840
H         -1.23140       -0.40130        4.88460
H          0.17920        0.67200        4.62350
C         -6.93180       -0.51850        0.94120
H         -6.93080       -1.40190        1.60450
H         -7.20860        0.37230        1.53230
H         -7.68130       -0.66730        0.15470
F         -1.42530       -4.73520        1.69830
F          0.41700       -5.54440        2.47280
F          0.12950       -5.36070        0.34810
F          3.63070       -1.56910        3.95870
F          4.27870       -0.57610        2.16300
F          4.51520       -2.71110        2.36570
F         -1.86170        4.90010        2.50100
F         -1.00350        6.34070        1.14900
F          0.05340        5.78660        2.93560
F          3.46640        5.04850       -0.94570
F          3.20580        3.24470       -2.09470
F          4.19150        3.16900       -0.18720
C         -4.05100       -3.65860       -1.31060
H         -4.78800       -3.50670       -2.11870
C         -2.91960       -4.54710       -1.80290
H         -3.32300       -5.50670       -2.15960
H         -2.35530       -4.07160       -2.61530
H         -2.20840       -4.74980       -0.99020
C         -4.76550       -4.22850       -0.09690
H         -5.56610       -3.54830        0.22630
H         -5.20450       -5.20890       -0.33240
H         -4.05650       -4.35570        0.73420
C         -3.00680        3.47360       -1.94460
H         -3.68880        3.53580       -2.81120
C         -3.38240        4.55790       -0.95220
H         -4.43090        4.44900       -0.64260
H         -2.74640        4.49540       -0.05950
H         -3.24650        5.55190       -1.40090
C         -1.56110        3.58340       -2.41310
H         -1.40470        4.53850       -2.93510
H         -0.87570        3.54570       -1.55430
H         -1.29500        2.77760       -3.11410
