88
L00302_lec.log
N         -0.56610        0.75310       -0.21960
S          0.12330        2.04580        0.56550
H         -0.17930        0.59110       -1.16160
C          1.84520        1.62610        0.51340
C          2.65470        2.18880       -0.47060
C          2.36770        0.74090        1.44880
C          3.99690        1.83320       -0.52190
H          2.23080        2.90780       -1.17390
C          3.71440        0.39790        1.38070
H          1.72730        0.32640        2.22870
C          4.55430        0.92510        0.39230
H          4.62320        2.28220       -1.29580
H          4.10070       -0.30710        2.11550
C          6.03750        0.55050        0.27820
C          6.45260       -0.49050        1.32520
H          7.51600       -0.74150        1.19650
H          6.32500       -0.11390        2.35140
H          5.87710       -1.42350        1.22570
C          6.89200        1.81530        0.48180
H          6.67580        2.58310       -0.27570
H          6.70780        2.25830        1.47230
H          7.96280        1.56810        0.41060
C          6.30600       -0.03600       -1.12050
H          5.70100       -0.93890       -1.29500
H          6.07690        0.68320       -1.92060
H          7.36650       -0.31460       -1.21960
O         -0.34070        2.02230        1.94520
O         -0.06060        3.24750       -0.23680
C          1.16280       -1.37260       -1.58940
C          0.86180       -3.23590       -0.11410
C          3.07470       -2.38430       -0.50750
C          2.23420       -3.29460        0.12090
C          2.53640       -1.42200       -1.36230
H          3.20020       -0.70480       -1.84580
H          4.15310       -2.41120       -0.33610
H          2.64080       -4.05450        0.79130
H          0.20140       -3.95840        0.37110
C         -3.57310       -1.45120        3.58560
H         -3.52350       -0.52480        4.18470
H         -4.54560       -1.91740        3.80790
C         -3.50240       -1.08550        2.10070
H         -3.66030       -1.98690        1.48290
H         -4.31920       -0.38900        1.85310
C         -4.62370        3.27730        0.46240
H         -5.59620        2.75280        0.45070
H         -4.68250        4.02830        1.26540
C         -3.51480        2.27410        0.78670
H         -2.56370        2.81480        0.90780
H         -3.72510        1.79230        1.75270
P         -2.08010       -0.02960       -0.02210
C         -2.13360       -0.47900        1.75820
C         -1.01030       -1.44940        2.13620
H         -1.98430        0.45920        2.31730
H         -0.88570       -0.87700        4.21480
C         -2.43070       -2.37990        3.99830
H         -2.47840       -2.58400        5.07950
H         -2.55440       -3.35180        3.48860
H         -0.26410       -2.49930        3.87510
H         -0.03030       -1.03050        1.86740
H         -1.12460       -2.37330        1.54690
C         -1.06990       -1.79160        3.62380
C         -2.16090       -1.30760       -1.18240
C         -3.43620       -1.53010       -1.83790
C         -2.85310       -3.82090       -2.37120
C         -1.16600       -2.38410       -1.30040
C         -1.58030       -3.60290       -1.84420
C         -3.76440       -2.73230       -2.40330
H         -4.17480       -0.72750       -1.88030
H         -4.73650       -2.84500       -2.88990
H         -0.83560       -4.40100       -1.92060
H         -3.11290       -4.78430       -2.81200
C          0.27860       -2.28580       -0.96840
C         -3.38440        1.22770       -0.33390
C         -3.14520        1.91550       -1.69060
H         -5.20960        2.38290       -2.13340
H         -4.33190        0.66400       -0.37640
C         -4.25350        2.92100       -2.00300
H         -2.17930        2.44530       -1.64120
H         -4.04060        3.41640       -2.96300
H         -3.47630        4.56110       -0.83670
H         -5.22290        4.64940       -1.11040
C         -4.39750        3.95510       -0.88780
H         -3.06340        1.16830       -2.49370
O          0.60320       -0.43920       -2.42020
C          1.39860        0.17110       -3.40550
H          2.12820        0.87600       -2.97150
H          0.71410        0.72570       -4.05910
H          1.93760       -0.58420       -4.00010
