101
L00304-corrected_lec.log
P         -1.40370       -0.70780        0.08050
C         -1.54680        0.86070        0.81830
C         -0.33940        1.69950        0.91810
C         -2.83310        1.55780        0.71960
C         -1.64910        3.62000        0.11720
C         -2.83340        2.88420        0.33450
C         -0.43230        3.01580        0.51800
H          0.46180        3.64450        0.57630
H         -3.78830        3.41290        0.24210
C         -1.30060       -2.21020        1.13370
C         -0.14310       -2.15980        2.13510
C         -2.63310       -2.44220        1.86220
H         -1.11100       -3.04270        0.43770
C         -0.08900       -3.43640        2.97410
H         -0.27410       -1.28650        2.79580
H          0.80670       -2.02190        1.60140
C         -2.57950       -3.71760        2.70570
H         -2.83920       -1.57690        2.51610
H         -3.46930       -2.50680        1.14790
C         -1.41340       -3.69040        3.69250
H          0.73510       -3.36750        3.70160
H          0.14220       -4.29030        2.31350
H         -3.53350       -3.84860        3.23970
H         -2.47100       -4.58810        2.03500
H         -1.36950       -4.63410        4.25830
H         -1.58410       -2.88780        4.43180
C         -2.70030       -1.02970       -1.19200
C         -2.57660        0.02420       -2.30730
C         -2.66800       -2.45190       -1.77360
H         -3.66840       -0.88450       -0.68770
C         -3.66960       -0.16360       -3.35880
H         -1.59200       -0.09270       -2.79100
H         -2.61990        1.03650       -1.87790
C         -3.75470       -2.62730       -2.83730
H         -1.68210       -2.64570       -2.22700
H         -2.80470       -3.20500       -0.98320
C         -3.64610       -1.57610       -3.94060
H         -3.54490        0.58460       -4.15670
H         -4.65560        0.03030       -2.89950
H         -3.69080       -3.64090       -3.26270
H         -4.74610       -2.55010       -2.35560
H         -4.45900       -1.70600       -4.67220
H         -2.69910       -1.72500       -4.48820
N          0.08910       -0.64530       -0.76740
S          0.99680       -1.76760       -1.60480
H          0.32240        0.31810       -1.02040
C          2.63460       -1.23950       -1.17870
C          3.22330       -1.69900       -0.00600
C          3.27510       -0.29660       -1.98050
C          4.45420       -1.17920        0.38500
H          2.72430       -2.46290        0.59260
C          4.50160        0.21070       -1.57130
H          2.81110        0.03190       -2.91220
C          5.11010       -0.20260       -0.37550
H          4.89650       -1.54800        1.30970
H          4.98990        0.95620       -2.20200
C          6.44110        0.42700        0.05350
C          7.50540        0.15020       -1.02430
H          8.46910        0.59410       -0.72980
H          7.65450       -0.93170       -1.16150
H          7.22650        0.57830       -1.99830
C          6.94380       -0.13650        1.38840
H          7.12930       -1.22010        1.33360
H          7.89440        0.34700        1.65860
H          6.23290        0.05410        2.20700
C          6.24180        1.94630        0.21280
H          5.93510        2.42230       -0.73010
H          5.46940        2.16510        0.96570
H          7.18120        2.42140        0.53590
O          0.81090       -1.55900       -3.03140
O          0.72030       -3.06730       -1.01270
C         -1.68830        5.04950       -0.38410
C         -0.89970        5.21620       -1.68910
H         -0.97730        6.24500       -2.07670
H         -1.26950        4.52710       -2.46330
H          0.16950        4.99810       -1.53250
C         -1.21500        6.05420        0.67500
H         -2.74390        5.28320       -0.60690
H         -1.80310        5.95710        1.59980
H         -1.30990        7.09050        0.31220
H         -0.15650        5.88990        0.93430
C          0.91160        1.18400        1.61930
C         -4.11030        0.89190        1.21170
C         -5.35880        1.24750        0.40400
H         -5.20670        1.05960       -0.67050
H         -5.63010        2.30820        0.51910
H         -6.22290        0.65370        0.74070
C         -4.30590        1.18180        2.70610
H         -3.98180       -0.19880        1.13590
H         -3.40520        0.90060        3.27300
H         -5.16490        0.62520        3.11630
H         -4.48010        2.25690        2.87010
C          2.22400        1.78710        1.11850
H          2.33570        1.66810        0.02930
H          3.07960        1.28500        1.59690
H          2.30350        2.86080        1.35010
C          0.76430        1.36890        3.13560
H          0.76440        2.43960        3.39470
H         -0.18800        0.94420        3.48800
H          1.58770        0.88010        3.68270
H          0.98530        0.10340        1.43660
