82
L00721_lec-1.log
P         -0.48760       -0.90060        0.25260
C         -1.71530       -1.40130       -0.98270
C         -2.21750       -2.70590       -0.88410
C         -2.21690       -0.53470       -1.95640
C         -3.67920       -2.28320       -2.75360
H         -3.60920       -0.28890       -3.57740
H         -3.56700       -4.17060       -1.70500
H         -4.45310       -2.62390       -3.44470
C         -3.18420       -3.15080       -1.77960
C         -3.20460       -0.97650       -2.83300
H         -1.85330        0.49050       -2.02370
H         -1.85390       -3.36950       -0.09460
C         -1.10140       -0.97540        1.86110
C         -0.46950       -1.74630        2.90960
C         -2.29840       -1.28980        4.45460
C         -2.36130       -0.33200        2.21920
C         -2.91620       -0.50530        3.47630
C         -1.05470       -1.89630        4.14090
H          0.46800       -2.26540        2.70930
H         -0.54840       -2.50960        4.89050
H         -3.85640        0.01020        3.68980
H         -2.75370       -1.41610        5.43720
C          1.03450       -1.85270        0.07050
C          1.19820       -2.78840       -0.95570
C          3.45150       -3.22720       -0.19750
C          2.10500       -1.57780        0.93580
H          0.38950       -2.97240       -1.66490
C          3.30050       -2.27570        0.81130
C          2.40590       -3.47220       -1.08560
H          4.39470       -3.76840       -0.30030
H          2.52790       -4.20060       -1.88980
H          4.12630       -2.05900        1.49070
H          2.00670       -0.80530        1.70120
N          0.02300        0.68590       -0.24000
S          0.92080        1.12390       -1.57870
H         -0.43150        1.49130        0.20010
C          2.60830        1.00690       -1.03170
C          3.05030        1.79380        0.02650
C          3.47160        0.12990       -1.67850
C          4.36940        1.67900        0.45510
H          2.36720        2.48780        0.52070
C          4.78770        0.03560       -1.24240
H          3.10060       -0.48470       -2.49960
C          5.26560        0.79790       -0.16710
H          4.69520        2.29850        1.29040
H          5.45130       -0.66580       -1.75240
C          6.72360        0.64100        0.28570
C          7.07920        1.59000        1.43700
H          8.13170        1.44600        1.72390
H          6.95600        2.64540        1.15000
H          6.46600        1.40010        2.33110
C          7.65820        0.94670       -0.89950
H          7.49810        1.96990       -1.27170
H          8.71050        0.85610       -0.58790
H          7.49980        0.25440       -1.73910
C          6.94890       -0.80570        0.76300
H          6.31490       -1.03360        1.63370
H          6.71940       -1.53860       -0.02480
H          7.99870       -0.95140        1.06200
O          0.60300        2.52010       -1.81710
O          0.73800        0.11530       -2.61050
C         -2.16930        4.44970        0.20390
C         -1.37700        3.88710        1.21690
C         -1.59460        2.58830        1.67070
C         -2.62380        1.85770        1.06590
C         -3.45250        2.42000        0.06820
C         -3.21250        3.72690       -0.36550
H         -1.96450        5.46630       -0.13590
H         -0.57630        4.48140        1.66260
H         -0.99590        2.14590        2.47000
H         -3.83450        4.17400       -1.14410
C         -4.11310        0.26910        0.51420
C         -4.86130       -0.90720        0.44320
C         -5.92980       -0.93460       -0.44350
C         -6.25170        0.17730       -1.24130
C         -5.50500        1.34660       -1.16140
C         -4.42470        1.39940       -0.27490
H         -4.60220       -1.76800        1.06140
H         -6.53160       -1.84270       -0.52390
H         -7.10030        0.12030       -1.92610
H         -5.75760        2.21190       -1.77840
N         -2.99780        0.54330        1.29360
