28
ncr
C        -1.164337        0.011593       -0.066133
C        -0.470765       -1.197390       -0.058559
C         0.916912       -1.173974       -0.029169
C         1.635405        0.033578       -0.009996
C         0.903904        1.227483       -0.027106
C        -0.489139        1.226184       -0.056245
H        -1.018238       -2.140884       -0.086842
H         1.451058       -2.126224       -0.025743
H         1.415707        2.189183       -0.022048
H        -1.050227        2.161779       -0.082057
S        -2.932630       -0.000642       -0.090141
O        -3.390303       -1.262589       -0.653938
O        -3.409676        1.271333       -0.613717
N        -3.321567       -0.031670        1.533367
H        -4.355683       -0.037181        1.526278
C         3.169134        0.001385        0.021340
C         3.630735       -0.746364        1.286181
H         4.730623       -0.773594        1.331432
H         3.263000       -0.246267        2.195094
H         3.271645       -1.785790        1.304720
C         3.682921       -0.730631       -1.232553
H         3.353044       -0.219032       -2.149548
H         4.783756       -0.757666       -1.232597
H         3.324881       -1.769556       -1.278973
C         3.777955        1.409077        0.042902
H         3.506722        1.987454       -0.853385
H         3.464775        1.978029        0.931559
H         4.875479        1.336116        0.068054
