46
ncr_addition_ts
C        -1.913213        1.160906       -1.735853
H        -1.882943        0.350074       -2.471542
C        -0.609903        1.824987       -1.430726
H         0.141199        1.027871       -1.282469
H        -0.268182        2.361156       -2.337039
C        -0.597900        2.757954       -0.225696
H        -1.255837        3.625590       -0.410527
H        -1.025877        2.223971        0.639919
C         0.803898        3.249473        0.121843
H         1.231472        3.785256       -0.743865
H         1.453555        2.373323        0.285012
C         0.839230        4.147579        1.352362
H         1.862828        4.479575        1.581662
H         0.220540        5.047561        1.208658
H         0.451131        3.619388        2.237841
C        -3.104013        1.416874       -1.127438
H        -3.233621        2.287703       -0.483469
H        -4.004344        0.910288       -1.480127
N        -3.044406        0.248715        0.792742
H        -4.067103        0.218453        0.912075
S        -2.626858       -1.324410        0.438111
C        -0.862681       -1.170428        0.274470
C        -0.118298       -0.539590        1.271149
C        -0.237939       -1.721957       -0.834952
C         1.258161       -0.440336        1.124624
H        -0.619758       -0.118105        2.143863
C         1.147963       -1.621405       -0.961611
H        -0.840474       -2.214671       -1.600106
C         1.923591       -0.974882        0.006829
H         1.827546        0.067328        1.906118
H         1.616460       -2.058444       -1.842903
C         3.447895       -0.839146       -0.105130
C         4.104316       -1.548239        1.094021
H         5.200884       -1.468904        1.030566
H         3.793047       -1.107535        2.052516
H         3.838330       -2.616045        1.112479
C         3.990866       -1.466321       -1.395211
H         5.083538       -1.343205       -1.434846
H         3.778817       -2.544957       -1.447840
H         3.571508       -0.986047       -2.292531
C         3.826883        0.653130       -0.096328
H         3.353008        1.185267       -0.935556
H         3.518760        1.151280        0.834895
H         4.917822        0.770222       -0.189292
O        -3.161118       -1.781317       -0.840173
O        -2.928241       -2.082235        1.646852
