46
ncr_addition_product
C        -1.304287        2.029033       -0.797561
H        -0.981256        1.621782       -1.762454
C        -0.324668        2.748176        0.061315
H        -0.628175        3.809349        0.185140
H        -0.365537        2.330740        1.087817
C         1.110741        2.693193       -0.454123
H         1.395857        1.637531       -0.605584
H         1.154691        3.170024       -1.449431
C         2.114676        3.365597        0.478425
H         2.139666        2.815672        1.435985
H         1.756344        4.380158        0.725719
C         3.521449        3.454708       -0.102303
H         4.219159        3.931268        0.602179
H         3.919159        2.457288       -0.343326
H         3.528867        4.046288       -1.031433
C        -2.750008        1.918701       -0.435282
H        -3.352364        2.697503       -0.941953
H        -2.898726        2.089718        0.643025
N        -3.374050        0.639759       -0.757094
H        -3.394864        0.374780       -1.737960
S        -3.125979       -0.675976        0.220946
C        -1.375976       -1.027354        0.166228
C        -0.852626       -1.746082       -0.902637
C        -0.542824       -0.555797        1.177886
C         0.520489       -1.973437       -0.968533
H        -1.519466       -2.141657       -1.671502
C         0.824272       -0.788219        1.095271
H        -0.974988       -0.018099        2.023514
C         1.388124       -1.498564        0.023189
H         0.907857       -2.544135       -1.812186
H         1.464188       -0.409151        1.895110
C         2.903711       -1.735493       -0.017113
C         3.620619       -0.375276       -0.083722
H         3.342765        0.167713       -1.000241
H         3.369016        0.264840        0.775175
H         4.713033       -0.515147       -0.088547
C         3.333562       -2.487860        1.255915
H         2.814880       -3.455412        1.334340
H         4.417599       -2.680537        1.236492
H         3.114812       -1.913771        2.168086
C         3.328972       -2.565677       -1.234629
H         3.076192       -2.065074       -2.181729
H         4.419570       -2.711044       -1.220331
H         2.862497       -3.562583       -1.233663
O        -3.818755       -1.771686       -0.431639
O        -3.426759       -0.250144        1.576427
