52
p11_phosphine
P         0.016531       -0.127816       -1.075124
C         1.393744       -0.895795       -0.066976
C         1.436042       -2.422325       -0.233273
C         2.737759       -0.282231       -0.493750
H         1.241288       -0.680165        1.005084
C         2.621212       -3.043666        0.509945
H         1.504599       -2.668698       -1.308924
H         0.502482       -2.877036        0.132812
C         3.916535       -0.897983        0.260758
H         2.871614       -0.443360       -1.578564
H         2.728875        0.809299       -0.346639
C         3.949986       -2.416071        0.091727
H         2.639771       -4.132265        0.341391
H         2.478896       -2.898319        1.595905
H         4.861411       -0.450657       -0.086736
H         3.829144       -0.651979        1.334363
H         4.779475       -2.851551        0.671272
H         4.147054       -2.656919       -0.968225
C        -1.499437       -1.035099       -0.455826
C        -1.771694       -1.041157        1.052396
C        -2.748891       -0.576654       -1.224769
H        -1.309642       -2.078718       -0.768868
C        -2.986016       -1.905713        1.400688
H        -1.966533       -0.007652        1.388387
H        -0.886521       -1.391196        1.607505
C        -3.970494       -1.429451       -0.874567
H        -2.968423        0.478464       -0.978305
H        -2.555893       -0.608898       -2.308861
C        -4.228357       -1.455165        0.632153
H        -3.173900       -1.876077        2.485946
H        -2.763973       -2.958623        1.150019
H        -4.858170       -1.056103       -1.409687
H        -3.801607       -2.461305       -1.231077
H        -5.083141       -2.110141        0.864287
H        -4.511354       -0.441187        0.968034
C        -0.189677        1.581418       -0.307873
C         0.310095        1.799793        1.127587
C         0.388137        2.659472       -1.241065
H        -1.286528        1.726788       -0.297722
C        -0.017104        3.209653        1.626481
H         1.404382        1.661248        1.162200
H        -0.116841        1.051995        1.811178
C         0.078865        4.071733       -0.741271
H         1.483419        2.529594       -1.313553
H        -0.002524        2.518850       -2.260906
C         0.554352        4.279275        0.696375
H         0.367647        3.345150        2.650047
H        -1.114207        3.327040        1.686605
H         0.536153        4.818672       -1.409689
H        -1.012670        4.237322       -0.788301
H         0.279626        5.285256        1.051563
H         1.657795        4.228209        0.723890
