54
p11_PN_byproduct
C         2.715683       -0.321970        0.308344
H         2.791642       -0.461675        1.401139
H         2.743711        0.764606        0.130039
C         1.375533       -0.913080       -0.158760
H         1.234248       -0.677447       -1.227947
C         1.369256       -2.438891        0.019980
H         0.444795       -2.870206       -0.394767
H         1.362296       -2.659296        1.101907
C         2.576118       -3.103260       -0.645056
H         2.500601       -2.976431       -1.740118
H         2.555068       -4.187997       -0.454819
C         3.894869       -2.502298       -0.162751
H         4.744624       -2.972497       -0.682429
H         4.022048       -2.721398        0.912234
C         3.912249       -0.989259       -0.370091
H         4.849185       -0.557175        0.015669
H         3.886569       -0.768325       -1.452273
C        -1.540055       -1.004942        0.313458
H        -1.341914       -2.047448        0.619377
C        -2.744800       -0.524636        1.134858
H        -2.954836        0.534825        0.899245
H        -2.489042       -0.568288        2.202520
C        -3.986628       -1.358983        0.818605
H        -4.849475       -0.979602        1.388362
H        -3.819521       -2.396209        1.159404
C        -4.298246       -1.364056       -0.678654
H        -4.578127       -0.342369       -0.993220
H        -5.169539       -2.004260       -0.889194
C        -3.092560       -1.824627       -1.498727
H        -3.318766       -1.777271       -2.575743
H        -2.878294       -2.883632       -1.269146
C        -1.849592       -0.987284       -1.187396
H        -0.991452       -1.353633       -1.774083
H        -2.033366        0.052643       -1.510776
C        -0.160162        1.609636        0.162617
H        -1.251636        1.788587        0.189902
C         0.314446        1.869993       -1.273896
H        -0.158054        1.170678       -1.980158
H         1.401537        1.692576       -1.341118
C         0.025850        3.313138       -1.695557
H        -1.067539        3.467349       -1.729780
H         0.398222        3.487758       -2.717510
C         0.647013        4.315956       -0.722978
H         0.397210        5.345745       -1.023528
H         1.747666        4.233509       -0.774975
C         0.192572        4.053712        0.713263
H        -0.892237        4.246884        0.792121
H         0.685112        4.754181        1.406073
C         0.472525        2.612335        1.138704
H         1.565238        2.451720        1.177290
H         0.091546        2.420897        2.152682
P        -0.003814       -0.134494        0.813544
N         0.087538       -0.289480        2.381017
H         0.872501        0.188059        2.817574
