80
p11_tbp_radical
P        -1.851109        0.294481       -0.283671
C        -0.666303        1.096656        0.910970
C         0.068100        0.116381        1.837465
C         0.335700        1.992216        0.158744
H        -1.297264        1.743762        1.546678
C         1.044857        0.837373        2.768817
H         0.617805       -0.620268        1.234915
H        -0.650913       -0.456287        2.441407
C         1.292662        2.709837        1.109559
H         0.917342        1.357775       -0.525544
H        -0.194817        2.723633       -0.469809
C         2.030845        1.712193        1.998058
H         1.583934        0.093945        3.377140
H         0.475589        1.467494        3.476143
H         2.010363        3.308909        0.526632
H         0.728306        3.420391        1.740704
H         2.703466        2.237817        2.695017
H         2.665572        1.070035        1.364381
C        -2.443614       -1.279208        0.485203
C        -3.341002       -1.116069        1.717651
C        -3.060999       -2.265854       -0.520545
H        -1.504146       -1.752238        0.809211
C        -3.568957       -2.473731        2.387769
H        -4.318131       -0.694317        1.425544
H        -2.898770       -0.408711        2.438391
C        -3.288839       -3.620726        0.150689
H        -4.020976       -1.879443       -0.902728
H        -2.393850       -2.385196       -1.385083
C        -4.152412       -3.490777        1.405965
H        -4.232195       -2.355846        3.259541
H        -2.604458       -2.849492        2.772161
H        -3.754095       -4.318774       -0.562878
H        -2.305108       -4.045053        0.413493
H        -4.265993       -4.470229        1.896920
H        -5.168843       -3.167217        1.116116
C        -3.372742        1.482006       -0.105462
C        -4.543847        0.990280       -0.960468
C        -3.002907        2.923751       -0.469197
H        -3.659619        1.448220        0.962530
C        -5.747198        1.933236       -0.890652
H        -4.852580       -0.017940       -0.649900
H        -4.207752        0.901844       -2.009900
C        -4.211091        3.861617       -0.399311
H        -2.213344        3.303561        0.196606
H        -2.587240        2.942053       -1.493672
C        -5.364419        3.362738       -1.267109
H        -6.152858        1.924509        0.136831
H        -6.550504        1.561814       -1.546457
H        -4.551071        3.933648        0.649233
H        -3.911173        4.877940       -0.700533
H        -5.059129        3.389791       -2.328453
H        -6.233903        4.032360       -1.174173
N        -0.471750       -0.579820       -1.412884
S         0.544397       -1.866910       -1.365070
H        -0.613026       -0.319223       -2.385802
C         2.156391       -1.188456       -0.970541
C         2.863983       -1.669575        0.121757
C         2.693250       -0.173945       -1.762500
C         4.100483       -1.107966        0.445228
H         2.433534       -2.469828        0.725860
C         3.919218        0.380642       -1.424735
H         2.142862        0.193252       -2.631247
C         4.646288       -0.063263       -0.306187
H         4.628846       -1.496070        1.315784
H         4.314742        1.186756       -2.046503
C         5.971518        0.619241        0.055262
C         6.616680        0.003107        1.302687
H         7.561932        0.520794        1.525118
H         5.970103        0.101034        2.188129
H         6.849242       -1.063098        1.159418
C         5.701874        2.109785        0.336386
H         6.636595        2.623012        0.612080
H         5.285890        2.624119       -0.542602
H         4.987024        2.228732        1.165010
C         6.955723        0.480672       -1.120361
H         7.154232       -0.578780       -1.343033
H         6.570161        0.950241       -2.037265
H         7.914000        0.965352       -0.875800
O         0.630138       -2.427080       -2.708520
O         0.196025       -2.728630       -0.234494
