36
p61_PN_byproduct
N         0.150574        0.178630        2.681521
P         0.013232        0.016268        1.125803
C        -1.527732        0.681334        0.380156
C        -1.996518        0.361169       -0.900367
C        -2.241124        1.599521        1.158339
C        -3.152891        0.952150       -1.401326
H        -1.466103       -0.369968       -1.516020
C        -3.400547        2.197185        0.671862
H        -1.868619        1.835128        2.159066
C        -3.837366        1.864909       -0.605065
H        -3.535660        0.713620       -2.394711
C         1.366619        0.968467        0.377723
C         1.477118        1.153025       -1.005013
C         2.324093        1.527488        1.229115
C         2.535441        1.881309       -1.538203
H         0.733389        0.727303       -1.682726
C         3.386100        2.261979        0.707655
H         2.209532        1.375089        2.304926
C         3.476169        2.426005       -0.669276
H         2.641653        2.037544       -2.612519
H         4.143851        2.709540        1.352534
C         0.136690       -1.667098        0.411567
C        -0.985558       -2.506771        0.400554
C         1.372276       -2.185622        0.004672
C        -0.886171       -3.829267       -0.020629
H        -1.959258       -2.124514        0.718772
C         1.487413       -3.505980       -0.421648
H         2.261340       -1.550714        0.016905
C         0.353403       -4.309385       -0.428786
H        -1.752232       -4.492436       -0.037892
H         2.442360       -3.921159       -0.746986
F         0.455507       -5.571488       -0.837572
F         4.490129        3.124859       -1.174764
H        -0.461091       -0.419752        3.231484
H        -3.969886        2.914176        1.265281
F        -4.945221        2.429873       -1.079195
