62
p61_distorted_tbp
P         1.181798        0.093159        0.134528
C         0.000381        0.628500       -1.155475
C        -0.818975        1.737878       -0.865719
C        -0.348968       -0.186928       -2.246654
C        -2.214715        1.234811       -2.741435
H        -1.729982       -0.514787       -3.888412
H        -2.524603        2.932604       -1.454057
F        -3.287045        1.515875       -3.486919
C        -1.904464        2.061087       -1.666565
C        -1.454010        0.112178       -3.039027
H         0.245062       -1.072337       -2.482223
H        -0.613390        2.356013        0.012559
C         2.191314       -1.205747       -0.641903
C         2.900272       -0.890359       -1.811699
C         3.737447       -3.128936       -1.909253
C         2.281896       -2.496115       -0.108746
C         3.056717       -3.463375       -0.746653
C         3.672638       -1.849793       -2.454706
H         2.852060        0.119407       -2.227339
H         4.230781       -1.621486       -3.363681
H         3.138253       -4.474577       -0.345709
F         4.477008       -4.050866       -2.519135
H         1.750654       -2.756102        0.809773
C         2.342615        1.482900        0.361878
C         2.273920        2.659087       -0.398483
C         4.232244        3.505630        0.694926
C         3.403509        1.332782        1.272414
H         1.488259        2.791015       -1.143283
C         4.344952        2.341126        1.445507
C         3.210449        3.675263       -0.230752
F         5.128918        4.473648        0.857349
H         3.161240        4.594428       -0.816178
H         5.170488        2.231613        2.150142
H         3.500549        0.409337        1.846411
N         1.252175       -0.485555        2.092746
S         0.026771       -1.420066        2.698829
H         1.262752        0.375088        2.646755
C        -1.478593       -0.924570        1.864603
C        -1.865504       -1.572534        0.697219
C        -2.257674        0.104788        2.389677
C        -3.040012       -1.189178        0.052777
H        -1.257688       -2.389930        0.304520
C        -3.431029        0.468860        1.738928
H        -1.958762        0.589721        3.321113
C        -3.856521       -0.174172        0.564411
H        -3.320531       -1.715697       -0.858910
H        -4.043659        1.258591        2.179350
C        -5.215735        0.182092       -0.055503
C        -5.455199       -0.546186       -1.384447
H        -4.686230       -0.294665       -2.129920
H        -5.479872       -1.638945       -1.258242
H        -6.427895       -0.243022       -1.800154
C        -5.317759        1.694008       -0.320297
H        -6.329373        1.945496       -0.674799
H        -5.125921        2.292656        0.582016
H        -4.606720        2.001783       -1.098792
C        -6.314061       -0.239046        0.940454
H        -6.252573       -1.315671        1.160623
H        -6.228167        0.304018        1.893524
H        -7.311115       -0.029939        0.521706
O        -0.119817       -1.076523        4.106284
O         0.276708       -2.796511        2.285000
