62
p61_b-scission_ts_tet
P         1.577083        0.135494        0.233191
C         0.133799        0.113565       -0.818913
C        -0.736537        1.228398       -0.821195
C        -0.139432       -0.959651       -1.688095
C        -2.029441        0.223135       -2.565898
H        -1.446180       -1.738728       -3.229557
H        -2.477627        2.145144       -1.711165
F        -3.063157        0.274778       -3.411075
C        -1.802978        1.289096       -1.703761
C        -1.217355       -0.907776       -2.561143
H         0.487330       -1.852957       -1.675821
H        -0.587137        2.056574       -0.128861
C         2.642386       -1.243386       -0.238123
C         3.160956       -1.353845       -1.538125
C         4.283761       -3.370527       -0.905356
C         2.936496       -2.226899        0.712910
C         3.763244       -3.296507        0.380364
C         3.990882       -2.415393       -1.876336
H         2.908193       -0.611065       -2.299147
H         4.407981       -2.521066       -2.878606
H         3.998845       -4.078035        1.103700
F         5.075041       -4.386725       -1.226407
H         2.479373       -2.180403        1.703180
C         2.507407        1.671105        0.126300
C         1.931302        2.843899        0.655385
C         3.832025        4.116563       -0.057125
C         3.776186        1.754783       -0.474524
H         0.975687        2.794936        1.181015
C         4.438925        2.972069       -0.566259
C         2.587011        4.064851        0.560140
F         4.463630        5.282469       -0.151183
H         2.150793        4.977063        0.969546
H         5.425835        3.046562       -1.024936
H         4.265211        0.860859       -0.863491
N         1.054701        0.083052        1.794865
S        -0.280570       -0.999593        2.527879
H         1.667392        0.460198        2.519246
C        -1.772122       -0.696650        1.759280
C        -2.266252       -1.590069        0.780795
C        -2.446078        0.526351        1.986438
C        -3.438512       -1.286366        0.110547
H        -1.740494       -2.526651        0.594220
C        -3.611081        0.797344        1.292439
H        -2.068981        1.221027        2.739343
C        -4.151853       -0.096045        0.342778
H        -3.805478       -2.010631       -0.617125
H        -4.131826        1.733119        1.511502
C        -5.492565        0.219525       -0.332110
C        -5.879051       -0.843959       -1.368197
H        -5.121756       -0.924575       -2.162252
H        -6.012666       -1.835070       -0.908769
H        -6.833036       -0.570029       -1.844267
C        -5.426972        1.577610       -1.054974
H        -6.416684        1.842919       -1.459734
H        -5.116089        2.391056       -0.382291
H        -4.722456        1.533878       -1.897722
C        -6.589181        0.269997        0.749612
H        -6.649318       -0.687390        1.289299
H        -6.392854        1.059766        1.490289
H        -7.572615        0.472250        0.295215
O        -0.228818       -0.453952        3.878413
O         0.177455       -2.358680        2.241097
