62
p61_distorted_a-scission_ts
P         1.478468        0.115276       -0.431226
C         0.311529       -1.095923        0.304992
C        -0.420106       -1.889524       -0.590914
C         0.072146       -1.236998        1.675399
C        -1.552597       -2.940344        1.231368
H        -1.061949       -2.274892        3.212873
H        -1.907601       -3.450190       -0.829672
F        -2.456623       -3.817478        1.675544
C        -1.344750       -2.822096       -0.138024
C        -0.865164       -2.156168        2.146200
H         0.618830       -0.621627        2.392853
H        -0.262575       -1.782451       -1.668000
C         2.171840        0.992981        1.021376
C         3.090121        0.406611        1.904870
C         3.125458        2.412957        3.212468
C         1.758370        2.313055        1.246758
C         2.228822        3.026653        2.348117
C         3.569378        1.110031        3.004724
H         3.442042       -0.613325        1.731508
H         4.285381        0.669050        3.699889
H         1.916933        4.055583        2.532869
F         3.582325        3.088394        4.264408
H         1.073347        2.803538        0.548827
C         2.877333       -0.958773       -0.948851
C         3.061175       -2.279964       -0.522154
C         5.076504       -2.431912       -1.810802
C         3.815275       -0.397319       -1.827470
H         2.338638       -2.742601        0.154186
C         4.921462       -1.124040       -2.256679
C         4.158818       -3.023238       -0.951263
F         6.127342       -3.137699       -2.222979
H         4.312769       -4.053840       -0.627820
H         5.658490       -0.696368       -2.937904
H         3.678501        0.627425       -2.184522
N         0.254166        2.180542       -2.723709
S        -0.998251        2.935139       -1.932950
H         0.203623        1.166645       -2.545077
C        -2.071140        1.698495       -1.228539
C        -2.000173        1.400163        0.127053
C        -3.037883        1.099974       -2.038071
C        -2.919462        0.510407        0.681227
H        -1.246582        1.880620        0.753483
C        -3.939916        0.211619       -1.468992
H        -3.104348        1.362180       -3.095795
C        -3.920310       -0.084425       -0.094791
H        -2.850345        0.300482        1.747915
H        -4.704559       -0.231271       -2.110488
C        -5.026358       -0.962690        0.506944
C        -4.822816       -1.206650        2.007499
H        -3.875532       -1.724845        2.212908
H        -4.842967       -0.268630        2.582546
H        -5.634039       -1.844091        2.389653
C        -5.076692       -2.327066       -0.202534
H        -5.921817       -2.918776        0.181888
H        -5.210784       -2.226891       -1.289539
H        -4.158646       -2.900649       -0.017592
C        -6.370658       -0.233380        0.312592
H        -6.353662        0.757145        0.792167
H        -6.607942       -0.087947       -0.751713
H        -7.188592       -0.818214        0.761630
O        -1.740516        3.616874       -2.979265
O        -0.394411        3.683779       -0.838645
