62
p61_tbp_radical_2
C        -2.097877       -1.363131       -0.924752
C        -2.691047       -0.531340       -1.874257
C        -3.882610        0.108619       -1.564476
C        -4.518466       -0.073744       -0.322601
C        -3.912263       -0.937053        0.592818
C        -2.708260       -1.578181        0.301607
H        -2.214344       -0.375276       -2.844168
H        -4.327359        0.769751       -2.311562
H        -4.363673       -1.113343        1.568467
H        -2.229492       -2.233728        1.029886
S        -0.569363       -2.209234       -1.287454
O        -0.772442       -3.018986       -2.481729
O        -0.136795       -2.820650       -0.037104
N         0.517050       -1.027716       -1.711417
C        -5.818148        0.680019       -0.010500
C        -5.526028        2.192055        0.007552
H        -6.452453        2.759534        0.188038
H        -4.818024        2.437470        0.813584
H        -5.099809        2.540195       -0.945497
C        -6.867649        0.364202       -1.091312
H        -7.072082       -0.716345       -1.135803
H        -7.812869        0.882837       -0.867182
H        -6.542698        0.686850       -2.091319
C        -6.395213        0.290577        1.356466
H        -6.635728       -0.782268        1.407886
H        -5.700076        0.532270        2.174368
H        -7.326042        0.848778        1.537730
P         1.618511        0.095080       -0.700265
C         2.709404        1.639776       -0.561275
C         2.351889        2.821766        0.100861
C         3.900828        1.623654       -1.305466
C         3.171975        3.949281        0.044785
H         1.434583        2.868951        0.690679
C         4.732081        2.735187       -1.361718
H         4.191866        0.715197       -1.842132
C         4.351590        3.890688       -0.684351
H         2.909647        4.870320        0.568034
C         0.297857        0.523260        0.482308
C        -0.676144        1.439203        0.060923
C         0.180438       -0.062806        1.743719
C        -1.740749        1.780105        0.883487
H        -0.611828        1.886339       -0.934315
C        -0.889820        0.262535        2.576960
H         0.908965       -0.805110        2.074242
C        -1.836414        1.173064        2.130098
H        -2.511044        2.478826        0.557082
H        -1.008892       -0.201175        3.557084
C         2.747774       -1.122723        0.058270
C         3.539434       -0.742952        1.153806
C         2.870941       -2.424877       -0.441018
C         4.425333       -1.638325        1.742737
H         3.467514        0.269793        1.556023
C         3.765013       -3.325465        0.128797
H         2.259760       -2.747884       -1.282156
C         4.527464       -2.921493        1.216898
H         5.039996       -1.354690        2.598053
H         3.868742       -4.340758       -0.255773
F         5.378802       -3.781244        1.769977
F        -2.884963        1.458454        2.905004
H         0.701993       -1.054534       -2.710978
H         5.666331        2.725193       -1.925412
F         5.139017        4.964351       -0.739786
