62
p61_isom_ts
P         1.281281        0.084630        0.089425
C         0.091794        0.303085       -1.219270
C        -0.785312        1.424581       -1.162897
C        -0.274148       -0.765985       -2.084698
C        -2.222974        0.437389       -2.807715
H        -1.682953       -1.508354       -3.546830
H        -2.566647        2.371873       -1.924744
F        -3.337297        0.496084       -3.553111
C        -1.913473        1.498974       -1.961134
C        -1.413126       -0.693656       -2.872340
H         0.349796       -1.660560       -2.139516
H        -0.581394        2.245178       -0.470284
C         2.423609       -1.230936       -0.401796
C         3.033303       -1.135025       -1.663270
C         4.225861       -3.165939       -1.243075
C         2.743269       -2.305692        0.435876
C         3.646804       -3.278112        0.013970
C         3.930741       -2.104500       -2.093499
H         2.804934       -0.291244       -2.318939
H         4.411975       -2.045593       -3.070595
H         3.901272       -4.126358        0.650804
F         5.088341       -4.093995       -1.647225
H         2.268004       -2.401489        1.412112
C         2.276462        1.609290        0.181625
C         2.216428        2.582786       -0.827027
C         3.974881        3.820515        0.232446
C         3.242356        1.751582        1.193085
H         1.511100        2.474576       -1.652085
C         4.087180        2.856183        1.226463
C         3.052208        3.694155       -0.799506
F         4.777045        4.880189        0.260297
H         3.003555        4.459930       -1.574869
H         4.838375        2.973129        2.008763
H         3.352413        0.981527        1.959170
N         1.136618       -0.133363        1.953183
S        -0.044283       -1.085649        2.644745
H         1.147660        0.761900        2.444875
C        -1.575565       -0.687585        1.822977
C        -2.016290       -1.479780        0.770279
C        -2.328731        0.404397        2.253227
C        -3.224135       -1.178606        0.145296
H        -1.422659       -2.337579        0.451040
C        -3.530376        0.689256        1.617346
H        -1.987770        1.004448        3.099182
C        -4.012056       -0.099395        0.558447
H        -3.547380       -1.814579       -0.677765
H        -4.117777        1.537875        1.974705
C        -5.382469        0.207189       -0.061773
C        -5.724327       -0.751427       -1.209618
H        -4.991962       -0.682128       -2.027175
H        -5.778673       -1.796762       -0.869601
H        -6.708612       -0.489669       -1.626281
C        -5.403331        1.641457       -0.619002
H        -6.412426        1.889961       -0.983001
H        -5.129945        2.388516        0.140798
H        -4.709696        1.736641       -1.465784
C        -6.455656        0.062111        1.034195
H        -6.443792       -0.951192        1.463836
H        -6.303404        0.777781        1.855774
H        -7.456793        0.244477        0.613074
O        -0.146838       -0.642952        4.025500
O         0.263764       -2.467823        2.306054
