62
p61_b-scission_ts_tbp
C         2.051557       -1.125393        1.473518
C         2.842729       -0.191177        2.139514
C         3.963190        0.320481        1.497246
C         4.312464       -0.071288        0.193437
C         3.486346       -1.002516       -0.447803
C         2.362653       -1.533188        0.181244
H         2.587375        0.105193        3.158653
H         4.588372        1.036202        2.035804
H         3.714238       -1.337265       -1.459261
H         1.737559       -2.274516       -0.319192
S         0.600521       -1.773393        2.265887
O         0.744137       -1.640589        3.716217
O         0.333685       -3.085460        1.662620
N        -0.812833       -0.549759        1.802366
C         5.582565        0.494095       -0.457847
C         5.513803        2.031698       -0.498624
H         6.452865        2.441124       -0.902398
H         4.695672        2.367060       -1.152077
H         5.365421        2.468688        0.500017
C         6.798970        0.052232        0.377586
H         6.858042       -1.045318        0.434881
H         7.730354        0.422950       -0.078532
H         6.752302        0.440498        1.405891
C         5.766569       -0.008749       -1.895382
H         5.880712       -1.102531       -1.937386
H         4.920560        0.282450       -2.535457
H         6.676756        0.433625       -2.327451
P        -1.679026        0.054219        0.459122
C        -2.841363        1.469912        0.389521
C        -2.450208        2.772456        0.028980
C        -4.130279        1.287778        0.934351
C        -3.318113        3.850138        0.187857
H        -1.462837        2.951128       -0.400835
C        -5.006240        2.353143        1.081489
H        -4.454173        0.288288        1.239480
C        -4.585997        3.629030        0.709628
H        -3.025764        4.861264       -0.100219
C        -0.289124        0.585357       -0.586397
C         0.679350        1.431122       -0.027552
C        -0.175418        0.206145       -1.925665
C         1.729680        1.913918       -0.796146
H         0.613984        1.703975        1.027720
C         0.888990        0.662137       -2.702487
H        -0.915573       -0.461033       -2.372879
C         1.819862        1.513300       -2.124416
H         2.488790        2.571210       -0.372026
H         1.003266        0.366611       -3.746197
C        -2.559768       -1.283925       -0.389574
C        -3.512372       -1.008248       -1.385467
C        -2.265586       -2.619538       -0.077925
C        -4.169895       -2.040105       -2.045545
H        -3.748126        0.025328       -1.647656
C        -2.919246       -3.657652       -0.735993
H        -1.514159       -2.860697        0.677770
C        -3.863318       -3.355029       -1.709053
H        -4.914866       -1.841105       -2.817257
H        -2.701059       -4.700170       -0.500124
F        -4.488962       -4.344941       -2.340441
F         2.843743        1.949248       -2.862667
H        -1.357634       -0.550531        2.666623
H        -6.009626        2.215057        1.487401
F        -5.420220        4.657185        0.860382
