34
p61_phosphine
P         0.000197       -0.000018        1.451646
C        -0.999573        1.309338        0.626133
C        -2.249214        1.608615        1.188287
C        -0.592133        2.016835       -0.511750
C        -3.083662        2.568392        0.623234
C        -1.410415        2.989924       -1.082561
C        -2.648400        3.249171       -0.508218
H        -2.579514        1.079193        2.086401
H         0.379565        1.809041       -0.965102
H        -4.058938        2.804414        1.051575
H        -1.101038        3.548808       -1.967136
C         1.633878        0.210804        0.625838
C         2.040606       -0.492032       -0.515233
C         2.519978        1.139661        1.190768
C         3.292300       -0.269874       -1.086303
C         3.768361        1.382435        0.625571
C         4.138010        0.668896       -0.508983
H         1.373142       -1.226613       -0.971062
H         2.228370        1.687364        2.091306
H         3.619896       -0.814281       -1.973343
H         4.462062        2.106098        1.056161
C        -0.634262       -1.520368        0.626200
C        -0.268422       -2.752284        1.188036
C        -1.450835       -1.520985       -0.511576
C        -0.682391       -3.954732        0.622771
C        -1.884393       -2.716079       -1.082613
C        -1.489707       -3.917948       -0.508586
H         0.355340       -2.773769        2.086061
H        -1.756664       -0.575298       -0.964454
H        -0.399029       -4.917430        1.050847
H        -2.523189       -2.727500       -1.967118
F        -1.898755       -5.063465       -1.051757
F        -3.435990        4.176271       -1.051124
F         5.334599        0.887376       -1.052108
