65
p64_phosphine
P        -0.030666       -0.517158       -0.671322
C         0.837787        1.107501       -0.233083
C         3.171498        2.079329        0.042011
C         2.928642        3.041978       -1.126494
H         0.931969        1.606787       -2.351044
C         2.353255        0.795250       -0.157028
H        -0.437778        2.346395       -1.516693
H         2.560355        0.116024        0.682405
C         1.434763        3.381478       -1.194548
C         0.626979        2.092542       -1.409299
H         3.254840        2.579173       -2.072675
H         3.524518        3.960728       -0.993846
C         0.591351       -1.689032        0.649585
C         1.879471       -2.409823        0.323752
C        -1.861803       -0.423981       -0.180230
C        -4.051412        0.781559       -0.619160
H        -2.287017       -1.728991       -1.876568
C        -4.652719       -0.490088       -1.230803
C        -4.020765       -1.718455       -0.563321
H        -4.467370       -0.512238       -2.317637
H        -5.746563       -0.499418       -1.089801
H        -2.124118        1.731001       -0.420670
H        -2.052669       -2.602120       -0.356726
C        -2.531219        0.799781       -0.843164
C        -2.502922       -1.695379       -0.796053
C         2.897004       -2.513227        1.279309
C         2.076928       -3.019810       -0.921478
C         4.262083       -3.801847       -0.240598
C         3.254582       -3.710080       -1.200563
C         4.078281       -3.199907        1.002710
H         3.387628       -4.177533       -2.179019
H         1.299695       -2.937392       -1.685251
H         2.678606        0.270429       -1.071468
C         2.744083        2.745660        1.356825
H         4.239822        1.813972        0.090349
C         0.997190        4.047452        0.117970
H         1.246775        4.065792       -2.037640
C         1.249941        3.087002        1.289215
H         1.553831        4.987166        0.271382
H        -0.072757        4.312422        0.069938
H         0.934443        3.562330        2.232257
C         0.428162        1.803315        1.078133
H         2.940568        2.068648        2.205295
H         3.334939        3.660461        1.531755
H        -0.639562        2.068255        1.053606
H         0.571893        1.121888        1.933784
H        -2.306915        0.810899       -1.923688
C        -4.339599        0.814041        0.888162
H        -4.492698        1.669304       -1.100387
C        -4.311327       -1.691989        0.943141
H        -4.436854       -2.637538       -1.006541
C        -3.711527       -0.418291        1.553134
H        -5.399326       -1.724080        1.121190
H        -3.879847       -2.583628        1.428459
H        -3.912047       -0.396640        2.636621
C        -2.189271       -0.407762        1.329039
H        -3.927551        1.735811        1.332744
H        -5.427761        0.829749        1.067175
H        -1.750553       -1.286328        1.827042
H        -1.755394        0.479032        1.811627
H         2.762539       -2.042781        2.257687
H         5.186883       -4.339240       -0.461525
H         4.859164       -3.263645        1.764044
H         0.674460       -1.185869        1.626177
H        -0.202777       -2.444766        0.764495
