67
p64_PN_byproduct
P        -0.176833       -0.606217       -0.553250
C         0.855548        0.931781       -0.193136
C         1.082161        3.423613       -0.603146
C         1.347054        3.645431        0.892651
H         0.220425        1.310990        1.869714
C         0.179718        2.192508       -0.778064
H         1.667787        0.303358        1.732197
H        -0.046395        2.025289       -1.843536
C         2.049097        2.410906        1.474358
C         1.152904        1.173036        1.301825
H         0.396935        3.826440        1.423470
H         1.972538        4.541717        1.039470
C         0.421978       -1.871521        0.688355
C         1.841940       -2.321100        0.475202
C        -1.984518       -0.390480       -0.127074
C        -3.754523        0.421618        1.479318
H        -2.248677        1.409116       -1.350023
C        -4.407153        1.235639        0.352588
C        -4.183836        0.523612       -0.989498
H        -3.975164        2.250281        0.319181
H        -5.486095        1.352613        0.548722
H        -1.762084       -0.241081        2.045693
H        -2.483373       -0.108483       -2.215949
C        -2.241805        0.312787        1.220622
C        -2.678215        0.402282       -1.262239
N        -0.167676       -1.073676       -2.060228
H         0.753074       -1.187597       -2.474466
C         2.841118       -2.082904        1.425967
C         2.193377       -2.983752       -0.709763
C         4.505945       -3.084898       -0.009979
C         3.513453       -3.355284       -0.952231
C         4.162540       -2.456545        1.185839
H         3.769136       -3.863237       -1.884944
H         1.416227       -3.189905       -1.449194
H        -0.775918        2.386937       -0.268337
C         2.412276        3.205246       -1.333832
H         0.566835        4.302461       -1.022930
C         3.378801        2.181182        0.743275
H         2.238260        2.564135        2.549161
C         3.106189        1.968247       -0.751787
H         4.046810        3.046491        0.889225
H         3.893452        1.299762        1.161249
H         4.056433        1.790166       -1.280003
C         2.203686        0.740757       -0.938684
H         2.233196        3.065828       -2.412765
H         3.056611        4.093775       -1.224799
H         2.726604       -0.155172       -0.573967
H         2.004845        0.588505       -2.011069
H        -1.809527        1.324733        1.218611
C        -4.380178       -0.978792        1.523925
H        -3.912960        0.929823        2.444157
C        -4.812371       -0.873463       -0.944839
H        -4.642633        1.111182       -1.800753
C        -4.151566       -1.680602        0.177925
H        -5.899537       -0.801282       -0.772761
H        -4.668959       -1.382322       -1.911893
H        -4.580974       -2.694830        0.210774
C        -2.641674       -1.795276       -0.077234
H        -3.932088       -1.569226        2.341016
H        -5.459582       -0.903586        1.736786
H        -2.439272       -2.320274       -1.023693
H        -2.205890       -2.395368        0.736310
H         2.583579       -1.595614        2.370122
H         5.541231       -3.374839       -0.201716
H         4.927274       -2.257225        1.939996
H         0.260906       -1.511597        1.715392
H        -0.248509       -2.727127        0.529830
