93
p64_distorted_tbp
C        -3.350145        0.846550        0.012538
C        -4.035399        1.397569        1.093377
C        -5.374856        1.079609        1.283528
C        -6.060546        0.219468        0.410993
C        -5.346866       -0.305816       -0.673419
C        -4.003489        0.002687       -0.878482
H        -3.518170        2.084007        1.766218
H        -5.897717        1.523327        2.133841
H        -5.837395       -0.966884       -1.387753
H        -3.463719       -0.397258       -1.738946
S        -1.613444        1.203059       -0.211573
O        -1.369282        2.497764        0.439018
O        -1.342828        1.092596       -1.650498
N        -0.857801       -0.034546        0.521028
C        -7.540016       -0.100456        0.665843
C        -7.683634       -0.759742        2.050102
H        -8.739033       -1.003345        2.250448
H        -7.100534       -1.691895        2.102952
H        -7.335233       -0.098994        2.857512
C        -8.354604        1.205846        0.626954
H        -8.257227        1.699577       -0.351949
H        -9.421949        0.996773        0.801418
H        -8.024261        1.918569        1.396847
C        -8.114559       -1.058246       -0.385567
H        -8.067643       -0.630497       -1.398594
H        -7.585568       -2.023506       -0.392537
H        -9.172633       -1.262419       -0.161978
P         1.495234        0.095469       -0.243130
H        -0.768350        0.207383        1.512577
C         1.416416       -0.457359       -2.007047
H         0.726389        0.268233       -2.462729
H         2.413447       -0.318010       -2.455057
C         0.907207       -1.852052       -2.271565
C         1.750729       -2.833448       -2.802437
C        -0.426316       -2.186937       -2.002057
C         1.290149       -4.131631       -3.022418
H         2.785698       -2.581439       -3.050028
C        -0.886609       -3.481833       -2.221311
H        -1.086768       -1.424994       -1.588752
C        -0.029673       -4.462379       -2.723442
H         1.966433       -4.884774       -3.433080
H        -1.925962       -3.728368       -1.992898
H        -0.392939       -5.478855       -2.890042
C         3.486864       -1.711251        2.990052
C         2.145404       -3.471542        1.833005
H         3.757458       -1.272782        3.963895
C         2.808130       -0.628005        2.137057
C         4.753596       -2.200658        2.273698
H         1.440722       -4.307201        1.967524
C         1.462809       -2.393925        0.979233
C         3.405259       -3.969439        1.111923
H         3.499261        0.220675        2.029189
H         1.909023       -0.249732        2.652286
C         2.423379       -1.195026        0.751717
H         5.266285       -2.958914        2.888395
H         5.460852       -1.364720        2.139012
C         4.372205       -2.794934        0.911009
H         0.537197       -2.046640        1.462469
H         1.163929       -2.832400        0.018462
H         3.892762       -4.764957        1.699853
H         3.132093       -4.406117        0.136958
C         3.698153       -1.714071        0.048881
H         5.279067       -3.144148        0.391562
H         3.438087       -2.141396       -0.929386
H         4.406223       -0.892345       -0.130520
C         2.352189        1.770067       -0.294485
C         2.332586        3.994271       -1.507625
C         1.986354        2.527839        1.007403
C         3.886419        1.725123       -0.451187
H         1.892824        4.529923       -2.363612
C         1.968922        4.715707       -0.204385
C         3.857653        3.931162       -1.662100
H         2.375410        1.995625        1.887725
H         0.891004        2.575892        1.101836
C         2.571496        3.946855        0.977510
H         4.161444        1.193321       -1.378019
H         4.347304        1.178340        0.385061
C         4.453635        3.156291       -0.479861
H         0.873993        4.768808       -0.096863
H         2.351366        5.750058       -0.223264
H         4.123712        3.438198       -2.612445
H         4.281401        4.948575       -1.698151
H         2.312315        4.453433        1.920692
C         4.097845        3.872317        0.831291
H         5.549052        3.097735       -0.586093
H         4.531389        4.886218        0.834881
H         4.535799        3.333226        1.688818
C         2.525467       -2.887379        3.198387
H         3.000445       -3.658437        3.827657
H         1.621091       -2.548726        3.730699
C         1.765026        2.567682       -1.488037
H         0.667496        2.596266       -1.425689
H         2.025151        2.076049       -2.438104
