93
p64_distorted_a-scission_ts
C        -3.761355        0.459044        0.168993
C        -4.515139        1.046881        1.183078
C        -5.865443        0.738890        1.281808
C        -6.488606       -0.145457        0.385458
C        -5.701455       -0.709070       -0.626363
C        -4.344808       -0.413275       -0.742045
H        -4.044100        1.746054        1.876021
H        -6.446699        1.206764        2.079006
H        -6.141460       -1.392962       -1.351477
H        -3.742728       -0.847481       -1.542133
S        -2.031878        0.828614        0.042121
O        -1.801947        2.140426        0.644286
O        -1.614910        0.585911       -1.338526
N        -1.371459       -0.364253        0.996586
C        -7.984008       -0.452588        0.540825
C        -8.228209       -1.073469        1.928931
H        -9.296306       -1.308270        2.058530
H        -7.655528       -2.005772        2.048750
H        -7.936314       -0.392210        2.741620
C        -8.784401        0.856543        0.408797
H        -8.614057        1.324104       -0.572955
H        -9.862397        0.655540        0.510218
H        -8.508107        1.587830        1.182517
C        -8.487210       -1.435929       -0.523420
H        -8.365598       -1.036336       -1.541730
H        -7.967174       -2.404289       -0.465881
H        -9.559821       -1.628100       -0.370854
P         1.600943        0.078670       -0.141799
H        -0.465430        0.025240        1.310862
C         1.523165       -0.550569       -1.895974
H         0.710623        0.038042       -2.346129
H         2.453652       -0.311234       -2.434692
C         1.187245       -2.013821       -2.038028
C         2.084080       -2.908457       -2.631339
C        -0.038236       -2.509669       -1.571777
C         1.786763       -4.268291       -2.724474
H         3.034037       -2.537403       -3.025751
C        -0.336822       -3.865953       -1.663247
H        -0.750676       -1.820872       -1.115298
C         0.577522       -4.753926       -2.231995
H         2.505148       -4.949676       -3.186084
H        -1.292363       -4.233688       -1.282314
H         0.344044       -5.818859       -2.297973
C         4.456132       -1.085167        2.741024
C         3.356919       -3.144084        1.853424
H         4.773181       -0.548069        3.649583
C         3.441287       -0.215066        1.982699
C         5.673942       -1.343530        1.842552
H         2.873606       -4.098239        2.117529
C         2.344089       -2.273358        1.096599
C         4.569122       -3.411906        0.951103
H         3.909294        0.753611        1.754399
H         2.569929       -0.006646        2.627409
C         2.979368       -0.916614        0.685002
H         6.423183       -1.944860        2.384182
H         6.158946       -0.388655        1.577407
C         5.224284       -2.077070        0.571498
H         1.456552       -2.090753        1.725122
H         1.993491       -2.819009        0.210050
H         5.296389       -4.057759        1.471351
H         4.249541       -3.948509        0.042195
C         4.213293       -1.207104       -0.194336
H         6.096003       -2.262802       -0.076822
H         3.905920       -1.734950       -1.107872
H         4.697484       -0.271679       -0.508697
C         2.116278        1.886743       -0.371916
C         1.494608        4.011584       -1.619154
C         1.777401        2.630054        0.945263
C         3.591341        2.144020       -0.739661
H         0.848149        4.408937       -2.417934
C         1.168706        4.712738       -0.295103
C         2.967417        4.242595       -1.980721
H         2.363633        2.223518        1.782594
H         0.712873        2.476208        1.183687
C         2.060174        4.132849        0.809522
H         3.841277        1.632803       -1.684836
H         4.262511        1.739088        0.031690
C         3.854846        3.654293       -0.876649
H         0.107857        4.560176       -0.039573
H         1.333257        5.799437       -0.389740
H         3.200175        3.766808       -2.948396
H         3.169731        5.320820       -2.095253
H         1.831666        4.625110        1.768459
C         3.538662        4.348421        0.456264
H         4.916388        3.806912       -1.131170
H         3.758858        5.426564        0.381663
H         4.182491        3.943958        1.256066
C         3.809493       -2.420761        3.127117
H         4.527403       -3.042781        3.687795
H         2.946263       -2.246400        3.790948
C         1.237059        2.502870       -1.490635
H         0.172901        2.317315       -1.286394
H         1.468269        2.030308       -2.457537
