93
p64_tbp_radical
C         1.280067       -0.232557       -2.396028
C         1.406901       -1.525304       -1.904889
C         2.630205       -1.949682       -1.382665
C         3.743062       -1.101999       -1.345828
C         3.582129        0.198938       -1.852090
C         2.372546        0.633922       -2.377993
H         0.552900       -2.203749       -1.944236
H         2.702454       -2.971222       -1.009001
H         4.427566        0.890307       -1.855042
H         2.273309        1.638967       -2.792926
S        -0.290943        0.354934       -3.033611
O        -1.100631       -0.830310       -3.303691
O         0.029411        1.287016       -4.108620
N        -1.005778        1.196597       -1.829339
C         5.117836       -1.550779       -0.830213
C         5.086695       -2.972825       -0.255652
H         6.086772       -3.244336        0.114455
H         4.386942       -3.059264        0.589576
H         4.804530       -3.716606       -1.015967
C         6.112928       -1.525537       -2.006360
H         6.219504       -0.515338       -2.428491
H         7.108923       -1.857074       -1.672618
H         5.781231       -2.194244       -2.815139
C         5.603789       -0.593120        0.272800
H         5.687867        0.442766       -0.086636
H         4.917002       -0.598091        1.131643
H         6.598487       -0.900816        0.631356
P        -1.122757        0.457937        0.153356
H        -0.511784        2.089764       -1.763052
C        -1.828700        2.108513        0.674135
H        -2.746395        2.210919        0.083174
H        -2.138197        2.013981        1.723377
C        -0.999105        3.358170        0.483796
C        -0.139305        3.836173        1.481152
C        -1.112587        4.106530       -0.697173
C         0.612383        4.993829        1.291163
H        -0.056953        3.301529        2.429198
C        -0.358211        5.262102       -0.893324
H        -1.806452        3.779111       -1.475676
C         0.514348        5.706995        0.097739
H         1.276136        5.342247        2.085559
H        -0.461551        5.820347       -1.826202
H         1.105364        6.612594       -0.053625
C         1.188233       -1.956382        2.824214
C         2.344190        0.233120        2.482647
H         1.311002       -3.051447        2.831517
C         0.157701       -1.585096        1.744979
C         0.682546       -1.482690        4.192610
H         3.302149        0.723719        2.246195
C         1.325307        0.589364        1.392273
C         1.835559        0.717317        3.846905
H        -0.788579       -2.096868        1.975227
H         0.500043       -1.948749        0.763147
C        -0.051260       -0.058665        1.693608
H         1.400568       -1.760881        4.981908
H        -0.272343       -1.977675        4.437400
C         0.494835        0.039363        4.161675
H         1.691416        0.236043        0.415652
H         1.230175        1.682775        1.313690
H         2.571841        0.483323        4.633801
H         1.714034        1.813867        3.838047
C        -0.535744        0.412862        3.080022
H         0.122752        0.387779        5.138761
H        -0.677819        1.502378        3.098130
H        -1.509559       -0.037005        3.326700
C        -2.669845       -0.621810        0.003516
C        -4.915353       -0.906426       -1.140326
C        -2.277776       -2.023221       -0.530469
C        -3.382330       -0.776320        1.365770
H        -5.603819       -0.435498       -1.859854
C        -4.501520       -2.290535       -1.653129
C        -5.603584       -1.040819        0.223600
H        -1.557396       -2.510806        0.137584
H        -1.804869       -1.908246       -1.515643
C        -3.522226       -2.916079       -0.654171
H        -3.681747        0.209738        1.758976
H        -2.705723       -1.227910        2.105844
C        -4.624597       -1.671664        1.221062
H        -4.022631       -2.198625       -2.640672
H        -5.389286       -2.933947       -1.773911
H        -5.928517       -0.050696        0.585937
H        -6.509086       -1.664098        0.136080
H        -3.204952       -3.907081       -1.015997
C        -4.196834       -3.057375        0.717186
H        -5.105744       -1.766751        2.208050
H        -5.075560       -3.719560        0.643925
H        -3.502299       -3.524088        1.436728
C         2.531226       -1.288264        2.509120
H         3.287130       -1.572649        3.260650
H         2.896928       -1.633293        1.529098
C        -3.671735       -0.013554       -1.011033
H        -3.184229        0.098814       -1.986943
H        -3.995525        0.988874       -0.690225
