93
p64_b-scission_ts
C         1.409967       -0.423812       -2.360517
C         1.538054       -1.589382       -1.570280
C         2.791826       -1.891492       -1.019869
C         3.899813       -1.064892       -1.187944
C         3.718263        0.129997       -1.943675
C         2.505140        0.452233       -2.509447
H         0.717009       -2.301302       -1.498346
H         2.883871       -2.818145       -0.451066
H         4.561271        0.805373       -2.103732
H         2.380775        1.367335       -3.091613
S        -0.159984        0.093015       -2.808023
O        -1.016715       -1.068704       -3.015547
O        -0.103395        1.185827       -3.766749
N        -0.842605        0.900134       -1.436132
C         5.296733       -1.409234       -0.657327
C         5.297521       -2.683317        0.197200
H         6.315333       -2.884261        0.564976
H         4.640429       -2.589393        1.075390
H         4.976567       -3.563009       -0.380869
C         6.236629       -1.634415       -1.858299
H         6.308046       -0.737000       -2.490662
H         7.252704       -1.885422       -1.513274
H         5.872513       -2.459855       -2.488738
C         5.842525       -0.251324        0.200038
H         5.910876        0.686483       -0.370191
H         5.201356       -0.067606        1.074534
H         6.854096       -0.490422        0.564893
P        -1.220986        0.346690        0.114823
H        -0.676096        1.900162       -1.562248
C        -2.210318        1.910767        0.593700
H        -3.186273        1.755422        0.118709
H        -2.381320        1.895789        1.675167
C        -1.672361        3.243268        0.142582
C        -0.835740        4.031343        0.945790
C        -2.014358        3.735580       -1.127576
C        -0.339254        5.249905        0.488615
H        -0.567269        3.695055        1.948812
C        -1.512571        4.950207       -1.590354
H        -2.678125        3.150023       -1.769157
C        -0.667766        5.711579       -0.785087
H         0.310516        5.843293        1.135619
H        -1.787038        5.301463       -2.587057
H        -0.272450        6.663359       -1.145396
C         1.559665       -1.271667        2.916395
C         2.398151        0.962740        2.154548
H         1.830244       -2.326761        3.082976
C         0.441532       -1.213754        1.864454
C         1.061610       -0.648361        4.225054
H         3.274931        1.516899        1.783299
C         1.298534        1.015304        1.083806
C         1.889968        1.594578        3.456988
H        -0.431088       -1.770685        2.242704
H         0.769090       -1.696118        0.932398
C         0.049679        0.246990        1.572051
H         1.847205       -0.697304        4.997106
H         0.194408       -1.210312        4.611091
C         0.670081        0.809748        3.961379
H         1.671592        0.566821        0.151192
H         1.042650        2.063967        0.859980
H         2.685686        1.586692        4.220081
H         1.618669        2.650580        3.287619
C        -0.441720        0.870514        2.897904
H         0.290564        1.268043        4.889075
H        -0.717059        1.922649        2.762666
H        -1.338917        0.344496        3.264456
C        -2.595036       -0.945019        0.084941
C        -4.747345       -1.637503       -1.037990
C        -2.027405       -2.351313       -0.223416
C        -3.312625       -0.981018        1.453489
H        -5.465169       -1.359182       -1.825753
C        -4.169123       -3.026575       -1.332905
C        -5.452618       -1.648313        0.325441
H        -1.279123       -2.639106        0.526347
H        -1.531151       -2.326580       -1.202573
C        -3.160023       -3.389091       -0.237341
H        -3.737199        0.004612        1.701595
H        -2.601237       -1.241008        2.254575
C        -4.444307       -2.022892        1.420673
H        -3.673777       -3.027415       -2.316665
H        -4.978476       -3.774756       -1.370872
H        -5.890461       -0.657719        0.535883
H        -6.284954       -2.371259        0.317417
H        -2.722832       -4.378009       -0.447248
C        -3.858225       -3.410592        1.128666
H        -4.945034       -2.027882        2.402256
H        -4.660021       -4.167387        1.136831
H        -3.141295       -3.693166        1.918213
C         2.783003       -0.499477        2.410043
H         3.601670       -0.556607        3.147336
H         3.146936       -0.950448        1.476531
C        -3.614867       -0.598311       -1.025732
H        -3.100262       -0.582090       -1.996966
H        -4.056942        0.397192       -0.865963
