26
scr
C         1.414606        0.009371       -0.106205
C         0.723952       -1.200635       -0.093090
C        -0.663729       -1.174609       -0.044827
C        -1.381482        0.033455       -0.019731
C        -0.648818        1.226852       -0.040893
C         0.744175        1.226097       -0.089411
H         1.271464       -2.144590       -0.102453
H        -1.198067       -2.126631       -0.022945
H        -1.159284        2.189094       -0.016785
H         1.306300        2.161510       -0.096637
S         3.208539       -0.004412       -0.230146
O         3.680540       -1.296856        0.297938
O         3.701117        1.282042        0.293415
C        -2.914699        0.002220        0.031346
C        -3.445050       -0.738889       -1.210206
H        -4.545750       -0.765938       -1.195317
H        -3.127780       -0.233813       -2.135284
H        -3.087963       -1.778294       -1.253865
C        -3.360450       -0.735935        1.307474
H        -2.980715       -0.229471        2.207851
H        -4.459666       -0.762076        1.367123
H        -3.001620       -1.775428        1.328871
C        -3.522762        1.410276        0.049835
H        -3.203318        1.983975        0.933158
H        -3.257872        1.983671       -0.851607
H        -4.620072        1.337875        0.083644
