44
scr_addition_ts
C         2.855551        1.715731       -0.713248
H         3.407774        2.346401       -0.007372
C         1.482296        2.161218       -1.104770
H         1.556392        2.893500       -1.932187
H         0.921412        1.302173       -1.512339
C         0.692850        2.794669        0.043131
H         0.754626        2.141229        0.928599
H         1.166902        3.748222        0.335714
C        -0.773771        3.024894       -0.303416
H        -1.212414        2.062535       -0.617053
H        -0.844918        3.693527       -1.178964
C        -1.585322        3.596042        0.852288
H        -1.187665        4.569061        1.181377
H        -2.639178        3.742614        0.572031
H        -1.560743        2.919624        1.722218
C         3.419885        0.525756       -1.111526
H         4.479650        0.332989       -0.919377
H         2.987062       -0.026813       -1.953087
S         2.786186       -1.163311        0.353565
C         0.998790       -1.124077        0.236782
C         0.259330       -0.469109        1.217836
C         0.374894       -1.691471       -0.868402
C        -1.121143       -0.386485        1.078759
H         0.770357       -0.046717        2.084904
C        -1.010107       -1.595438       -0.991934
H         0.967222       -2.221755       -1.617024
C        -1.787309       -0.943784       -0.024931
H        -1.691443        0.122661        1.858875
H        -1.481761       -2.053358       -1.860978
C        -3.316805       -0.848489       -0.116067
C        -3.742845        0.630671       -0.119417
H        -4.840823        0.709828       -0.145753
H        -3.391323        1.164774        0.775407
H        -3.343759        1.154174       -1.001691
C        -3.863590       -1.509827       -1.387382
H        -4.959094       -1.410578       -1.413480
H        -3.467570       -1.036167       -2.298690
H        -3.629401       -2.584551       -1.424686
C        -3.931627       -1.560185        1.104044
H        -3.624444       -2.616485        1.138890
H        -3.627316       -1.089680        2.050514
H        -5.031041       -1.524187        1.052048
O         3.150480       -0.782273        1.722651
O         3.254028       -2.417820       -0.250829
