44
scr_addition_product
C         2.652871        1.679267       -0.414339
H         3.120643        2.251998        0.391487
C         1.340468        2.123464       -0.966399
H         1.501728        2.766778       -1.857151
H         0.785851        1.245862       -1.345227
C         0.464556        2.877220        0.035658
H         0.421363        2.303050        0.975922
H         0.936074        3.842912        0.289435
C        -0.955333        3.103028       -0.472163
H        -1.384252        2.124913       -0.749183
H        -0.925086        3.697273       -1.401979
C        -1.862762        3.780558        0.546868
H        -1.481923        4.775645        0.826080
H        -2.883170        3.909752        0.156085
H        -1.931823        3.183871        1.471022
C         3.291383        0.420629       -0.835671
H         4.390005        0.429292       -0.757006
H         3.004486        0.094234       -1.846987
S         2.873440       -1.006190        0.249464
C         1.090192       -1.067230        0.185783
C         0.346685       -0.438357        1.180822
C         0.461496       -1.704122       -0.877745
C        -1.039427       -0.426598        1.083629
H         0.862865        0.032617        2.019450
C        -0.929949       -1.685474       -0.957762
H         1.058668       -2.220273       -1.632395
C        -1.709082       -1.044181        0.014523
H        -1.610643        0.074722        1.868005
H        -1.404533       -2.192737       -1.797280
C        -3.243107       -1.016525       -0.037712
C        -3.726563        0.443464       -0.109067
H        -4.827114        0.480289       -0.108756
H        -3.372322        1.039637        0.744765
H        -3.371243        0.930954       -1.029824
C        -3.794375       -1.766529       -1.256845
H        -4.893618       -1.718579       -1.254096
H        -3.447724       -1.322981       -2.202700
H        -3.510384       -2.829828       -1.247266
C        -3.799447       -1.684351        1.233966
H        -3.447772       -2.723862        1.318087
H        -3.495081       -1.150927        2.146321
H        -4.900234       -1.695940        1.206983
O         3.261670       -0.645847        1.609495
O         3.401401       -2.203555       -0.396555
