14
diethylether_rad
C         1.159889        0.530384        0.034172
H         1.168380        1.227309       -0.826763
C        -1.184590        0.479197        0.064997
H        -1.150128        1.495575       -0.353941
C        -2.422764       -0.336368       -0.014552
H        -2.401775       -1.148704        0.729522
H        -3.307209        0.287529        0.177422
H        -2.553833       -0.810900       -1.007443
O        -0.029542       -0.224950        0.020950
H         1.200418        1.145868        0.951947
C         2.340459       -0.412842       -0.032856
H         2.301387       -1.017002       -0.950744
H         3.283000        0.153331       -0.027049
H         2.338138       -1.095630        0.828880
