15
diethylether
C         1.173656       -0.514457        0.000000
H         1.203014       -1.179203        0.889101
C        -1.173656       -0.514457        0.000000
H        -1.203014       -1.179203       -0.889101
H        -1.203014       -1.179203        0.889101
C        -2.367970        0.415725        0.000000
H        -2.351656        1.060831       -0.890369
H        -3.306334       -0.157655        0.000000
H        -2.351656        1.060831        0.890369
O         0.000000        0.246698        0.000000
H         1.203014       -1.179203       -0.889101
C         2.367970        0.415725        0.000000
H         2.351656        1.060831        0.890369
H         3.306334       -0.157655        0.000000
H         2.351656        1.060831       -0.890369
