17
ethylbenzene_rad
C         1.330392       -1.365487        0.000009
C        -0.021421       -1.052089        0.000042
C        -0.460383        0.300565        0.000035
C         0.542261        1.309815       -0.000003
C         1.889380        0.986122       -0.000032
C         2.296121       -0.353835       -0.000014
H         1.641122       -2.412942        0.000003
H        -0.758315       -1.857975        0.000046
H         0.233414        2.358548       -0.000021
H         2.637564        1.782207       -0.000057
H         3.358315       -0.606784       -0.000041
C        -1.834492        0.651764        0.000075
H        -2.079531        1.717942        0.000091
C        -2.953226       -0.335558       -0.000071
H        -3.930473        0.165056        0.000002
H        -2.916895       -0.996817       -0.884512
H        -2.916987       -0.997010        0.884249
