18
ethylbenzene
C        -1.925154       -0.979083        0.000088
C        -0.570131       -1.293656       -0.000005
C         0.410539       -0.290545       -0.000116
C        -0.013739        1.041266       -0.000152
C        -1.373164        1.362324       -0.000030
C        -2.333984        0.355856        0.000078
H        -2.668735       -1.779526        0.000185
H        -0.259208       -2.342628        0.000024
H         0.719462        1.849951       -0.000237
H        -1.679324        2.411085       -0.000026
H        -3.396878        0.606938        0.000185
C         1.872635       -0.690892       -0.000156
H         2.050832       -1.336136       -0.877341
H         2.050731       -1.336618        0.876697
C         2.885657        0.446104        0.000218
H         3.910358        0.047324        0.000227
H         2.778499        1.085907       -0.889218
H         2.778305        1.085456        0.889955
