19
hexane_rad
C        -3.270968        0.097878        0.082656
H        -3.313820        0.872529        0.868251
H        -3.592521        0.595396       -0.855539
H        -4.026968       -0.666415        0.314890
C        -1.905980       -0.482810       -0.037607
H        -1.799186       -1.534823       -0.324215
C        -0.696207        0.387797       -0.073762
H        -0.698416        0.998797       -1.003650
H        -0.751986        1.133604        0.743689
C         0.626697       -0.371027        0.013871
H         0.679776       -1.101661       -0.813133
H         0.641184       -0.965994        0.943960
C         1.855876        0.532569       -0.031282
H         1.798055        1.263515        0.794101
H         1.834212        1.127203       -0.961314
C         3.171483       -0.232958        0.055630
H         3.271884       -0.946726       -0.777510
H         4.037448        0.444805        0.020880
H         3.234928       -0.808929        0.992546
