20
hexane
C         1.406172       -2.893531        0.000000
H         0.889097       -3.291084        0.887887
H         0.889097       -3.291084       -0.887887
H         2.429104       -3.298744        0.000000
C         1.406172       -1.368880        0.000000
H         1.960041       -0.998752       -0.880406
H         1.960041       -0.998752        0.880406
C         0.004880       -0.762875        0.000000
H        -0.551348       -1.131385       -0.881043
H        -0.551348       -1.131385        0.881043
C        -0.004880        0.762875        0.000000
H         0.551348        1.131385       -0.881043
H         0.551348        1.131385        0.881043
C        -1.406172        1.368880        0.000000
H        -1.960041        0.998752        0.880406
H        -1.960041        0.998752       -0.880406
C        -1.406172        2.893531        0.000000
H        -0.889097        3.291084       -0.887887
H        -2.429104        3.298744        0.000000
H        -0.889097        3.291084        0.887887
