17
methylcyclopentane_rad
C         1.496616        0.729982       -0.217045
C         1.483770       -0.737050        0.232514
C         0.070039       -1.228182       -0.125228
C        -0.775112        0.010797       -0.064923
C         0.082017        1.226716        0.119263
H         2.292989        1.320522        0.259493
H         1.656124        0.783771       -1.307016
H         1.624987       -0.787609        1.325186
H         2.283571       -1.337057       -0.226049
H         0.049343       -1.670466       -1.142930
H        -0.288726       -2.025747        0.550824
H        -0.240537        2.079507       -0.503909
H         0.038424        1.588583        1.169350
C        -2.259048        0.005086        0.013428
H        -2.691114        0.949129       -0.355758
H        -2.694362       -0.821438       -0.571983
H        -2.620398       -0.123292        1.054745
