18
methylcyclopentane
C        -1.524313        0.776470        0.032623
C        -1.524691       -0.776249        0.030851
C        -0.055921       -1.191334       -0.162329
C         0.757032        0.000218        0.357783
C        -0.056033        1.191004       -0.163747
H        -2.176914        1.196970       -0.746445
H        -1.902336        1.157320        0.993800
H        -2.174857       -1.194367       -0.751529
H        -1.906348       -1.159298        0.989692
H         0.195938       -2.137457        0.340860
H         0.166242       -1.328363       -1.235484
H         0.692141        0.000962        1.462427
H         0.196788        2.138153        0.337046
H         0.164548        1.325597       -1.237565
C         2.224403        0.000000       -0.044183
H         2.746644        0.889345        0.341136
H         2.746627       -0.888973        0.342019
H         2.328663       -0.000552       -1.141942
