19
N-ethylpyrrolidone
C        -1.875396        1.077141       -0.070378
C        -0.379978        1.428404       -0.065370
C        -0.539450       -0.925968       -0.020037
C        -1.903114       -0.381061        0.387844
H        -2.464926        1.752243        0.564006
H        -2.267437        1.155582       -1.095727
H        -0.069122        1.866199        0.902543
H        -0.109939        2.150567       -0.853048
H        -2.706525       -0.988256       -0.048633
H        -1.981293       -0.472877        1.483981
C         1.666172        0.012140       -0.593275
H         1.812900       -1.032165       -0.904000
H         1.912990        0.655939       -1.455172
C         2.571322        0.339562        0.590135
H         3.627420        0.203710        0.314430
H         2.444874        1.380968        0.924573
H         2.350827       -0.324916        1.438618
N         0.259847        0.150499       -0.297493
O        -0.200754       -2.087724       -0.070330
