18
N-ethylpyrrolidone_rad
C        -1.467578        1.430739       -0.227994
C         0.011054        1.350453        0.173251
C        -0.800119       -0.865520       -0.000896
C        -2.012311        0.044666        0.111423
H        -1.989528        2.249870        0.284060
H        -1.546238        1.610811       -1.310821
H         0.172281        1.674006        1.218046
H         0.656766        1.968145       -0.467806
H        -2.819331       -0.306377       -0.544609
H        -2.384468       -0.013804        1.148398
C         1.604287       -0.585172        0.070033
H         1.639720       -1.670567       -0.023697
C         2.801491        0.284227       -0.065649
H         3.712571       -0.307864        0.093805
H         2.886439        0.747087       -1.069711
H         2.813409        1.111250        0.666063
N         0.328076       -0.061588        0.027876
O        -0.782388       -2.073474       -0.068733
