62
L000233-tbp.log
C          2.28560        1.10400       -1.15230
C          2.80520        0.27430       -2.14580
C          4.02880       -0.34440       -1.93850
C          4.76750       -0.14330       -0.75790
C          4.22780        0.71260        0.20510
C          2.99330        1.33490        0.01730
H          2.25030        0.10820       -3.07130
H          4.41980       -0.99880       -2.72070
H          4.75720        0.90330        1.13810
H          2.56870        1.98450        0.78420
S          0.71940        1.91910       -1.39580
O          0.79090        2.67840       -2.63600
O          0.39030        2.56720       -0.13380
N         -0.37950        0.69920       -1.66990
C          6.11120       -0.86050       -0.57230
C          5.88040       -2.38250       -0.60850
H          6.83550       -2.91810       -0.49100
H          5.21380       -2.69630        0.20960
H          5.42930       -2.70890       -1.55720
C          7.06480       -0.45390       -1.71090
H          7.23130        0.63400       -1.71260
H          8.04020       -0.95010       -1.58800
H          6.67060       -0.73520       -2.69840
C          6.77530       -0.50680        0.76420
H          6.98770        0.57010        0.84350
H          6.15100       -0.79950        1.62240
H          7.73300       -1.04090        0.85540
P         -1.35970       -0.36210       -0.51610
C         -2.42950       -1.90310       -0.18470
C         -2.00510       -3.05190        0.49430
C         -3.68420       -1.90590       -0.81270
C         -2.83580       -4.17170        0.56300
H         -1.03630       -3.07460        0.99550
C         -4.50190       -3.02570       -0.72710
H         -4.03530       -1.02670       -1.36010
C         -4.08810       -4.17100       -0.04370
H         -2.50370       -5.05850        1.10760
C          0.05550       -0.71460        0.58470
C          0.98300       -1.67970        0.16980
C          0.26060       -0.02390        1.77840
C          2.08350       -1.98020        0.96400
H          0.84480       -2.19830       -0.78180
C          1.38080       -0.32400        2.55290
H         -0.41990        0.76670        2.09600
C          2.28750       -1.30600        2.16640
H          2.80130       -2.73450        0.63720
Cl         1.66730        0.57520        4.01640
C         -2.44190        0.88680        0.26900
C         -3.10290        0.57350        1.46570
C         -2.64730        2.13620       -0.32210
C         -3.94890        1.50260        2.06360
H         -2.95790       -0.40220        1.93350
C         -3.51150        3.04750        0.27930
H         -2.13630        2.41250       -1.24270
C         -4.16330        2.74570        1.47260
H         -4.45280        1.25520        2.99980
Cl        -3.77650        4.59210       -0.47610
H         -4.82960        3.47910        1.92860
H          3.15600       -1.52020        2.79080
H         -0.64520        0.66470       -2.65090
Cl        -6.06860       -3.00380       -1.49060
H         -4.74200       -5.04240        0.00650
