111
L00001-tbp.log
P          1.95070       -0.55800        0.15120
C          1.42300       -0.69500        1.91350
C          0.17670        0.15240        2.19260
H          1.11330       -1.74980        1.99050
C          0.74400        0.15940        4.65610
H         -0.68730       -1.13470        3.69310
H          0.36250       -0.05890        5.66610
H          1.02080        1.22860        4.64900
H         -1.21840        0.55220        3.80060
H          0.42240        1.21250        2.06670
H         -0.59900       -0.06650        1.44810
C         -0.34210       -0.08850        3.60870
C          3.08070        0.99200        0.11470
C          4.41450        0.94560        0.54900
C          4.78770        3.21470       -0.16370
C          2.60080        2.18720       -0.46320
C          3.46850        3.27900       -0.59560
C          5.26190        2.04190        0.42000
H          4.81260        0.03650        1.00310
H          6.29390        1.97620        0.77140
H          3.09830        4.19160       -1.06880
H          5.44650        4.07690       -0.28620
C          1.16120        2.30830       -0.86380
C          3.21480       -1.90310       -0.08720
H          3.92930       -1.74490        0.74040
C          4.63840       -4.21660       -1.26820
C          3.99730       -1.77590       -1.40300
H          4.38920       -0.75680       -1.53720
C          5.14400       -2.78690       -1.45650
H          3.31380       -1.96970       -2.24600
H          4.00460       -4.49030       -2.13000
H          5.87350       -2.54670       -0.66180
H          5.48220       -4.92470       -1.26140
H          5.68200       -2.68950       -2.41280
N          0.28600       -1.41740       -0.51530
S         -0.67410       -2.69990       -0.17780
H          0.08380       -1.07170       -1.45000
C         -2.33980       -2.05180       -0.04130
C         -2.80570       -1.60110        1.18850
C         -3.17900       -2.04400       -1.15320
C         -4.10760       -1.11780        1.29940
H         -2.15970       -1.65660        2.06480
C         -4.47950       -1.56840       -1.02430
H         -2.81700       -2.43850       -2.10460
C         -4.97490       -1.09380        0.20040
H         -4.44520       -0.77560        2.27740
H         -5.12590       -1.58210       -1.90460
C         -6.43310       -0.62620        0.30860
C         -6.75480       -0.05470        1.69530
H         -6.63810       -0.80820        2.48860
H         -6.11440        0.80710        1.93930
H         -7.79980        0.28920        1.72110
C         -7.35670       -1.83130        0.04980
H         -8.41330       -1.52940        0.12800
H         -7.20100       -2.25420       -0.95380
H         -7.17250       -2.63100        0.78320
C         -6.71170        0.46850       -0.73550
H         -7.75360        0.81600       -0.65550
H         -6.05010        1.33440       -0.58220
H         -6.56380        0.10580       -1.76320
O         -0.31590       -3.19330        1.15200
O         -0.69800       -3.62560       -1.30900
C          0.28100        2.98990        0.02530
C          0.64510        1.72690       -2.03730
C         -1.63840        2.14680       -1.24080
C         -0.74920        1.66340       -2.19000
C         -1.09080        2.84290       -0.15510
H         -1.76730        3.31260        0.55910
H         -1.13680        1.22000       -3.10850
C          1.98800       -0.68020        4.36710
H          1.73810       -1.75000        4.47700
H          2.77770       -0.46350        5.10380
C          2.51800       -0.43330        2.95200
H          2.87190        0.60830        2.87530
H          3.39280       -1.07820        2.77050
C          3.81710       -4.34740        0.01350
H          4.47750       -4.19990        0.88740
H          3.40430       -5.36400        0.10270
C          2.67520       -3.33020        0.06380
H          1.96370       -3.53950       -0.75100
H          2.10770       -3.44810        0.99620
C          0.81240        3.99290        1.06480
C          1.43590        1.23730       -3.26360
C          1.42420        3.41870        2.34760
H          0.64890        2.99440        3.00320
H          1.92430        4.22300        2.90850
H          2.17170        2.64100        2.14460
C         -0.21720        5.06510        1.43370
H         -1.03290        4.65780        2.05200
H         -0.66420        5.53030        0.54280
H          0.26790        5.85670        2.02460
C          2.91730        1.59960       -3.36140
H          3.08920        2.67290       -3.20650
H          3.28040        1.34380       -4.36870
H          3.53600        1.05150       -2.63850
C          1.23920       -0.25620       -3.55190
H          1.70770       -0.87750       -2.77740
H          1.70170       -0.52450       -4.51380
H          0.17640       -0.53510       -3.61320
H          1.62790        4.52480        0.55340
H          0.94840        1.77330       -4.09720
C         -3.14890        2.00400       -1.38670
C         -3.86510        3.35280       -1.23730
H         -3.68080        3.82320       -0.26130
H         -4.95380        3.22710       -1.34120
H         -3.53120        4.05560       -2.01730
C         -3.57490        1.33360       -2.69130
H         -3.47940        1.34780       -0.55960
H         -3.29130        1.94260       -3.56510
H         -4.66670        1.20970       -2.71160
H         -3.13020        0.33530       -2.80450
