80
L00011-tbp.log
C         -2.16000       -1.24220       -1.06740
C         -2.55630       -0.04620       -1.66360
C         -3.71260        0.58520       -1.22790
C         -4.50980        0.04020       -0.20610
C         -4.11210       -1.18410        0.33880
C         -2.94500       -1.82370       -0.08210
H         -1.94140        0.40300       -2.44620
H         -3.99280        1.53470       -1.68940
H         -4.70040       -1.65580        1.12560
H         -2.62380       -2.76360        0.36950
S         -0.63920       -2.04420       -1.58110
O         -0.81000       -2.43420       -2.97790
O         -0.38650       -3.06800       -0.56920
N          0.51530       -0.86980       -1.53760
C         -5.73800        0.81300        0.29080
C         -5.26530        2.15530        0.88160
H         -6.12320        2.73120        1.26330
H         -4.56420        1.98990        1.71440
H         -4.75400        2.77490        0.12980
C         -6.69860        1.06960       -0.88410
H         -7.03850        0.12100       -1.32700
H         -7.58530        1.62400       -0.53870
H         -6.22650        1.66260       -1.68110
C         -6.50020        0.04870        1.38030
H         -6.86710       -0.92340        1.01720
H         -5.87660       -0.12680        2.27010
H         -7.37480        0.63450        1.70120
P          1.91280        0.13120       -0.45490
C          3.07670        1.67690       -0.56290
H          4.06510        1.21950       -0.75380
C          3.20580        2.59170        0.66290
H          3.50840        2.02110        1.55380
H          2.22520        3.03990        0.89710
C          4.21010        3.72080        0.40890
H          4.26960        4.37210        1.29550
H          5.21620        3.28600        0.27140
C          3.83780        4.53570       -0.82890
C          0.85320        0.52610        1.00680
C          0.20530       -0.66860        1.71680
H          1.53770        0.99920        1.73090
H         -1.13880       -1.08320        3.35750
C         -0.65560       -0.20810        2.89550
H         -0.41370       -1.24160        1.01630
H          0.97570       -1.36770        2.07330
C         -1.70630        0.81610        2.46890
H         -2.29470        1.14740        3.33970
H         -0.00660        0.23780        3.67130
C          3.15360       -1.18470       -0.02310
C          2.65850       -2.62840       -0.16210
H          3.92630       -1.03150       -0.80100
H          3.38560       -4.65150        0.03110
C          3.78310       -3.62790        0.10720
H          2.24270       -2.78550       -1.16490
H          1.82140       -2.81550        0.52700
C          4.43040       -3.40250        1.47200
H          5.25230       -4.11740        1.63510
H          4.55480       -3.53260       -0.67840
H          3.68470       -3.59400        2.26410
H         -2.41300        0.33940        1.76950
H          0.70050       -0.61530       -2.50560
H          4.58890        5.31980       -1.01240
H          2.88070        5.05590       -0.64450
C          4.94140       -1.96910        1.59850
H          5.75560       -1.80780        0.86930
H          5.37640       -1.79590        2.59560
C          3.83060       -0.94840        1.33940
H          3.07810       -1.02520        2.14210
H          4.24940        0.06710        1.39570
C          3.69300        3.63730       -2.05660
H          4.67850        3.20720       -2.30950
H          3.37610        4.22700       -2.93130
C          2.70310        2.49830       -1.80660
H          1.68900        2.91750       -1.67430
H          2.64890        1.84120       -2.68950
C         -1.05830        2.01270        1.77690
H         -0.42810        2.56190        2.50020
H         -1.82920        2.71920        1.43010
C         -0.20210        1.56700        0.59280
H         -0.84850        1.11770       -0.17540
H          0.27870        2.44150        0.12640
