53
L00054-tbp.log
P         -2.00570        0.18370       -0.50660
C         -0.76300        0.56020        0.74760
C         -0.52220        0.02250        1.97730
O          0.17280        1.49700        0.45570
H         -1.09840       -0.76910        2.44900
C          0.64600        0.68180        2.47150
C          1.01790        1.56010        1.50000
H          1.14860        0.51470        3.42040
H          1.83970        2.26430        1.40750
C         -3.25790       -0.84340        0.27120
O         -4.31610       -0.23170        0.86110
C         -3.37340       -2.20250        0.40790
H         -2.65190       -2.94030        0.06930
H         -6.00990       -0.84680        1.86700
C         -5.10810       -1.18770        1.36550
C         -4.58510       -2.42450        1.12590
H         -5.01020       -3.37960        1.42370
C         -2.88400        1.81730       -0.48080
C         -2.54350        3.07420       -0.04440
O         -3.99510        1.89390       -1.25620
H         -1.68870        3.32600        0.57730
C         -4.39400        3.17780       -1.28030
C         -3.54310        3.95740       -0.55520
H         -3.62190        5.03060       -0.39930
H         -5.29710        3.39100       -1.84580
N         -1.03760       -1.17500       -1.32720
S          0.10990       -2.27160       -0.84530
H         -1.28210       -1.34450       -2.30040
C          1.58390       -1.31490       -0.54110
C          2.37030       -1.62390        0.56020
C          1.98750       -0.33420       -1.44490
C          3.57300       -0.94590        0.75810
H          2.03220       -2.38600        1.26390
C          3.17910        0.34190       -1.22580
H          1.35860       -0.08600       -2.30180
C          4.00200        0.05000       -0.12400
H          4.17110       -1.20770        1.63050
H          3.47290        1.11790       -1.93570
C          5.30800        0.83100        0.07470
C          6.09760        0.33880        1.29400
H          5.53080        0.46500        2.22910
H          6.37630       -0.72170        1.19900
H          7.02770        0.91870        1.39210
C          4.97510        2.32030        0.28230
H          5.89870        2.90680        0.40850
H          4.42520        2.74160       -0.57230
H          4.36020        2.46080        1.18500
C          6.19500        0.66760       -1.17330
H          6.42940       -0.39290       -1.35090
H          5.71020        1.06090       -2.07870
H          7.14360        1.21130       -1.04130
O          0.35270       -3.12360       -2.00160
O         -0.26940       -2.86840        0.43100
