92
L00003-tbp.log
P          1.83410       -0.04430        0.18890
C          1.37550       -0.02370        1.96780
C          0.15200        0.87270        2.18840
H          1.07220       -1.06440        2.16640
C          0.77410        1.12030        4.62000
H         -0.68890       -0.25470        3.82780
H          0.41900        1.00510        5.65630
H          1.04830        2.18340        4.49690
H         -1.20720        1.43900        3.78190
H          0.41580        1.91810        1.95650
H         -0.64460        0.58780        1.48410
C         -0.34020        0.77500        3.63140
C          2.44750        1.70970       -0.12030
C          3.67810        2.22090        0.30920
C          3.15740        4.36660       -0.66080
C          1.57970        2.53630       -0.85960
C          1.93990        3.86330       -1.11060
C          4.03390        3.54140        0.04170
H          4.37200        1.58830        0.86800
H          4.99590        3.92690        0.38690
H          1.25650        4.49990       -1.67660
H          3.42840        5.40400       -0.86870
C          0.30260        1.98660       -1.40820
C          3.35950       -1.06370        0.01350
H          4.14450       -0.51960        0.56920
C          5.00580       -3.29390       -1.01080
C          3.78170       -1.12820       -1.46130
H          3.87020       -0.11250       -1.87810
C          5.09180       -1.89820       -1.62890
H          2.98090       -1.63830       -2.02470
H          4.27060       -3.89400       -1.57540
H          5.90690       -1.33210       -1.14320
H          5.97270       -3.81370       -1.10250
H          5.35360       -1.96510       -2.69710
N          0.47400       -1.41360       -0.36700
S         -0.41900       -2.63640        0.24130
H          0.19870       -1.22880       -1.33080
C         -2.09690       -2.00920        0.20800
C         -2.57640       -1.24460        1.26440
C         -2.88830       -2.22280       -0.91750
C         -3.82810       -0.63970        1.16700
H         -1.97110       -1.13140        2.16450
C         -4.14090       -1.62500       -0.99470
H         -2.51620       -2.86020       -1.72180
C         -4.62910       -0.79880        0.02920
H         -4.17490       -0.03860        2.00790
H         -4.74860       -1.80660       -1.88440
C         -6.00300       -0.13140       -0.12050
C         -6.31220        0.81910        1.04320
H         -6.35950        0.28920        2.00630
H         -5.56000        1.61940        1.12630
H         -7.29010        1.29770        0.88310
C         -7.08830       -1.22280       -0.16380
H         -8.08680       -0.76960       -0.26900
H         -6.93990       -1.90950       -1.01030
H         -7.07810       -1.82170        0.75950
C         -6.04010        0.68350       -1.42670
H         -7.01940        1.17320       -1.54440
H         -5.26760        1.46820       -1.42790
H         -5.87890        0.05230       -2.31280
O         -0.03920       -2.81650        1.64190
O         -0.39390       -3.78530       -0.66060
C         -0.93590        2.26690       -0.81010
C          0.33300        1.14300       -2.53390
C         -2.04580        0.82240       -2.38240
C         -0.83980        0.55880       -3.02680
C         -2.11040        1.66380       -1.28020
O         -0.90900        3.11840        0.23590
H         -3.06770        1.83570       -0.79130
H         -2.96300        0.35690       -2.74700
H         -0.82320       -0.09730       -3.89590
O          1.55600        0.91240       -3.05620
C          2.01210        0.25390        4.38450
H          1.76890       -0.79870        4.61160
H          2.82010        0.54700        5.07350
C          2.50190        0.35190        2.93660
H          2.83580        1.38490        2.73990
H          3.37620       -0.30340        2.79520
C          4.57070       -3.22800        0.45330
H          5.35710       -2.72670        1.04640
H          4.46580       -4.24290        0.86700
C          3.25040       -2.47150        0.61120
H          2.44930       -3.02150        0.09430
H          2.95750       -2.42900        1.67110
C         -2.06620        3.28390        1.01000
C          1.68910        0.01950       -4.12860
H         -1.78940        3.93170        1.85060
H         -2.43090        2.31880        1.40340
H         -2.87680        3.76770        0.43810
H          2.76020       -0.03580       -4.35690
H          1.32980       -0.99090       -3.86570
H          1.14840        0.37190       -5.02350
