71
L00009-tbp.log
C         -2.08820       -1.40480       -0.61660
C         -2.68560       -0.75650       -1.69760
C         -3.90050       -0.11450       -1.51460
C         -4.55210       -0.11060       -0.26800
C         -3.93760       -0.79040        0.78570
C         -2.71120       -1.43490        0.62050
H         -2.19520       -0.74810       -2.67300
H         -4.35140        0.39880       -2.36680
H         -4.40130       -0.81860        1.77130
H         -2.22710       -1.94840        1.45200
S         -0.52510       -2.23050       -0.83840
O         -0.66840       -3.16650       -1.94870
O         -0.10950       -2.71120        0.47520
N          0.52770       -1.06000       -1.34470
C         -5.88000        0.64130       -0.10850
C         -5.64290        2.13690       -0.38880
H         -6.58380        2.70080       -0.28890
H         -4.91640        2.55630        0.32410
H         -5.25630        2.30780       -1.40440
C         -6.90880        0.08210       -1.10810
H         -7.08090       -0.99090       -0.93410
H         -7.87140        0.60610       -0.99960
H         -6.57960        0.20490       -2.15030
C         -6.45680        0.50280        1.30590
H         -6.66030       -0.54770        1.56350
H         -5.77970        0.92030        2.06680
H         -7.40820        1.05160        1.37400
P          1.62690        0.17500       -0.45160
C          2.58210        1.82170       -0.54710
C          2.21830        2.96880        0.17360
C          3.64020        1.90050       -1.48260
C          2.89500        4.17430       -0.00190
H          1.40610        2.92240        0.90070
C          4.30390        3.12070       -1.64310
C          3.94210        4.25240       -0.91500
H          2.60160        5.05040        0.58100
C          0.25720        0.67950        0.67270
C         -0.62880        1.56170        0.02810
C         -0.00830        0.28160        1.99800
C         -1.73080        2.10060        0.67420
H         -0.44160        1.83720       -1.01340
C         -1.12280        0.85470        2.63590
C         -1.96880        1.75380        2.00200
H         -2.39960        2.77880        0.14140
H         -1.33650        0.55730        3.66580
C          2.92920       -0.82750        0.37840
C          3.56350       -0.18310        1.45430
C          3.38950       -2.10090       -0.02640
C          4.58630       -0.78400        2.17450
H          3.24120        0.81960        1.74110
C          4.42030       -2.68960        0.72320
C          5.00870       -2.05970        1.81260
H          5.04940       -0.25570        3.01010
H          4.78010       -3.67620        0.42120
H          5.80960       -2.55760        2.36340
H         -2.82870        2.16450        2.53630
H          0.75960       -1.21070       -2.32250
H          5.12470        3.18400       -2.36290
H          4.47680        5.19270       -1.06560
C          0.78400       -0.73920        2.77480
H          1.09760       -1.57510        2.14010
H          0.16300       -1.14860        3.58360
H          1.67840       -0.29780        3.23750
C          2.90360       -2.86570       -1.23130
H          2.81140       -2.22240       -2.11630
H          1.92710       -3.33400       -1.05410
H          3.61740       -3.66410       -1.47510
C          4.08380        0.70790       -2.29010
H          4.76760        1.00810       -3.09590
H          3.22410        0.19170       -2.74810
H          4.60400       -0.03180       -1.66070
