74
L00062-tbp.log
C         -2.31010       -1.34490       -1.09580
C         -2.85660       -0.49900       -2.06040
C         -4.08100        0.10490       -1.81880
C         -4.79590       -0.12570       -0.62920
C         -4.21640       -0.97140        0.32020
C         -2.98140       -1.58280        0.09320
H         -2.32280       -0.31460       -2.99480
H         -4.49630        0.76270       -2.58540
H         -4.71910       -1.17080        1.26660
H         -2.52910       -2.23580        0.84090
S         -0.77030       -2.18730       -1.42600
O         -0.94970       -2.96350       -2.64860
O         -0.38830       -2.84920       -0.18470
N          0.32180       -0.99970       -1.78020
C         -6.16990        0.53160       -0.43690
C         -6.01710        2.06300       -0.48150
H         -6.99480        2.55160       -0.34630
H         -5.34670        2.41850        0.31600
H         -5.60260        2.40560       -1.44100
C         -7.10600        0.07770       -1.57320
H         -7.21810       -1.01710       -1.57370
H         -8.10460        0.52530       -1.44800
H         -6.72820        0.37690       -2.56170
C         -6.81940        0.14080        0.89670
H         -6.98130       -0.94530        0.96680
H         -6.21390        0.45060        1.76130
H         -7.80100        0.62960        0.98900
P          1.41620        0.10710       -0.69810
C          2.43660        1.67930       -0.47980
C          2.08580        2.77410        0.32730
C          3.57380        1.80080       -1.28700
C          2.85910        3.92750        0.34110
H          1.20820        2.72110        0.97460
C          4.36460        2.94710       -1.27610
H          3.86450        0.96890       -1.93690
C          4.00620        4.02610       -0.45730
H          2.59780        4.77450        0.97820
C          0.11800        0.36910        0.55060
C         -0.89000        1.30030        0.28630
C          0.06210       -0.35860        1.74460
C         -1.91880        1.53390        1.19440
H         -0.88290        1.86070       -0.65240
C         -0.96400       -0.14440        2.65340
H          0.81710       -1.11730        1.95740
C         -1.96080        0.80240        2.38740
H         -2.69160        2.26070        0.94590
H         -1.02260       -0.71280        3.58280
C          2.60710       -1.12380       -0.07090
C          3.48200       -0.77970        0.97720
C          2.69040       -2.41470       -0.59650
C          4.39490       -1.69220        1.47710
H          3.44530        0.22190        1.41080
C          3.61410       -3.33880       -0.11120
H          2.02040       -2.72050       -1.39820
C          4.47140       -2.98450        0.93510
H          5.06820       -1.42940        2.29440
H          3.64140       -4.33400       -0.55390
H          0.53370       -0.99790       -2.77470
H          5.25010        2.98900       -1.91080
O         -2.92430        0.93140        3.32180
C         -3.90370        1.91870        3.15440
H         -4.56430        1.86010        4.02800
H         -4.50240        1.74910        2.24390
H         -3.46200        2.92940        3.10530
O          5.38920       -3.80490        1.47940
C          5.50440       -5.11680        0.99650
H          6.29470       -5.59910        1.58430
H          5.78980       -5.13670       -0.06950
H          4.56610       -5.68330        1.12540
O          4.69520        5.18310       -0.37540
C          5.85690        5.34070       -1.14260
H          6.25030        6.33930       -0.91650
H          5.64620        5.27790       -2.22460
H          6.62380        4.58920       -0.88530
