99
L00025-tbp.log
C          2.51200        1.80320        0.08030
C          3.03750        1.25560       -1.08930
C          4.32870        0.74510       -1.07970
C          5.12470        0.77480        0.07690
C          4.57680        1.35840        1.22570
C          3.27860        1.86830        1.23650
H          2.43580        1.24350       -2.00000
H          4.72630        0.32190       -2.00470
H          5.15930        1.41680        2.14500
H          2.85540        2.31810        2.13640
S          0.81960        2.37670        0.08370
O          0.56760        2.94300       -1.24060
O          0.60440        3.22020        1.25680
N          0.00790        0.96460        0.33690
C          6.55030        0.20810        0.03000
C          6.52690       -1.22980       -0.52090
H          7.54790       -1.64100       -0.55000
H          5.91350       -1.88770        0.11270
H          6.12470       -1.27800       -1.54320
C          7.40160        1.09790       -0.89530
H          7.43210        2.13350       -0.52400
H          8.43520        0.72050       -0.94780
H          6.99840        1.12010       -1.91880
C          7.20370        0.17670        1.41740
H          7.32060        1.18550        1.84090
H          6.62140       -0.43100        2.12730
H          8.20860       -0.26590        1.34470
P         -1.96770        0.67270        0.16210
C         -3.28580       -0.37230       -0.67070
C         -2.84440       -1.63620       -1.11330
C         -4.59320        0.04470       -0.94630
C         -3.73700       -2.47030       -1.79200
C         -5.47110       -0.79620       -1.62810
H         -4.92690        1.03380       -0.62230
C         -5.04380       -2.05630       -2.04510
H         -3.39320       -3.44620       -2.14280
C         -2.29890        0.41340        1.93850
C         -1.36730        0.82490        2.90420
C         -3.49480       -0.18450        2.36380
C         -1.62620        0.62680        4.25870
H         -0.44300        1.30670        2.58690
C         -3.74310       -0.38710        3.71930
H         -4.24110       -0.50370        1.63540
C         -2.80860        0.01480        4.67140
H         -0.89150        0.95510        4.99690
H         -4.67560       -0.86300        4.03010
C         -2.47610        2.36430       -0.25900
C         -2.56540        3.36990        0.70660
C         -2.67920        2.68260       -1.60880
C         -2.86980        4.67630        0.32680
H         -2.38620        3.14110        1.75830
C         -2.98820        3.98460       -1.98280
H         -2.58630        1.90750       -2.37370
C         -3.08360        4.98440       -1.01370
H         -2.93170        5.45750        1.08690
H         -3.14090        4.22450       -3.03690
H         -3.31680        6.00990       -1.30860
H         -3.00320       -0.14570        5.73410
H          0.41650        0.22780       -0.24340
H         -6.49160       -0.46590       -1.83440
H         -5.72820       -2.71600       -2.58290
C         -1.40930       -2.01680       -0.90150
C         -1.01210       -2.69210        0.27160
C          0.34940       -2.88330        0.50620
C          1.32730       -2.42520       -0.37770
C          0.90820       -1.81180       -1.55860
C         -0.44470       -1.59600       -1.84100
H          1.66580       -1.46380       -2.26560
H          0.66020       -3.38030        1.42720
C          2.80100       -2.55800       -0.04080
C          3.26860       -4.01540       -0.09370
H          2.74840       -4.62560        0.66200
H          4.34960       -4.08600        0.10540
H          3.07180       -4.46260       -1.07940
C          3.11030       -1.91190        1.31280
H          3.35960       -1.99590       -0.80780
H          4.19400       -1.89940        1.50530
H          2.63440       -2.46280        2.13940
H          2.74870       -0.87430        1.34450
C         -2.04030       -3.22110        1.26060
C         -1.60070       -3.11060        2.72160
H         -0.79190       -3.81850        2.96280
H         -2.44490       -3.34480        3.38740
H         -1.25320       -2.09520        2.96230
C         -2.41770       -4.66540        0.90690
H         -2.94730       -2.60870        1.14820
H         -1.53800       -5.32520        0.97670
H         -2.81100       -4.73840       -0.11750
H         -3.18710       -5.04800        1.59560
C         -0.84930       -0.91520       -3.14160
C         -0.00530        0.31630       -3.47940
H          0.00320        1.05610       -2.66440
H         -0.41010        0.81560       -4.37310
H          1.03780        0.04770       -3.71260
C         -0.84260       -1.93420       -4.28760
H         -1.88690       -0.56890       -3.02560
H          0.17110       -2.33480       -4.44950
H         -1.17910       -1.46900       -5.22710
H         -1.50750       -2.78300       -4.06820
