74
L00068-tbp.log
P         -1.80150        0.48180       -0.10090
C         -0.33180        0.66260        0.98050
C         -0.18040        0.00360        2.20340
C          0.69520        1.51210        0.54450
C          1.95430        1.08270        2.55610
C          1.82300        1.72980        1.32750
C          0.95660        0.21300        2.98630
H         -0.94040       -0.69500        2.55510
H          2.84370        1.24520        3.16910
H          1.06040       -0.31420        3.93710
H          2.61130        2.39300        0.96640
H          0.61700        1.99690       -0.43150
C         -2.72250       -1.03080        0.46100
C         -3.57030       -0.90820        1.73520
C         -3.55630       -1.64950       -0.67490
H         -1.90420       -1.74340        0.65570
C         -4.09530       -2.28370        2.15660
H         -4.43010       -0.24120        1.55830
H         -2.99910       -0.45780        2.56090
C         -4.09080       -3.02010       -0.25870
H         -4.40030       -0.98360       -0.93040
H         -2.93940       -1.75210       -1.57760
C         -4.89900       -2.94350        1.03620
H         -4.71050       -2.18560        3.06510
H         -3.24010       -2.92990        2.42190
H         -4.70350       -3.44510       -1.06910
H         -3.23120       -3.69830       -0.12250
H         -5.22850       -3.94840        1.34400
H         -5.81690       -2.35430        0.85780
C         -2.89270        1.95030        0.62260
C         -2.17210        3.29670        0.52850
C         -4.23270        2.01360       -0.11910
H         -3.04920        1.69080        1.68250
C         -2.00330        3.77390       -0.91550
H         -1.20110        3.26060        1.04460
H         -2.77900        4.04080        1.07710
C         -4.08270        2.49170       -1.56530
H         -4.74710        1.04110       -0.09700
H         -4.89070        2.71640        0.42460
C         -3.34670        3.82960       -1.64430
H         -1.32790        3.08520       -1.45470
H         -1.51710        4.76200       -0.93090
H         -3.52360        1.73320       -2.14190
H         -5.07440        2.57110       -2.03740
H         -3.97350        4.61360       -1.18220
H         -3.20260        4.12590       -2.69530
N         -0.79180       -0.38010       -1.49560
S          0.15730       -1.72370       -1.54420
H         -1.05680       -0.10980       -2.43920
C          1.78130       -1.17420       -1.04610
C          2.32270       -1.62020        0.14940
C          2.49820       -0.30520       -1.86810
C          3.58940       -1.18130        0.53570
H          1.74720       -2.30340        0.77490
C          3.75360        0.12750       -1.46620
H          2.07250        0.02640       -2.81720
C          4.32800       -0.29760       -0.25480
H          3.98820       -1.54150        1.48360
H          4.30190        0.81060       -2.11890
C          5.71780        0.21380        0.14820
C          6.18440       -0.37370        1.48600
H          5.50550       -0.10450        2.30970
H          6.26090       -1.47090        1.44650
H          7.18110        0.01950        1.73680
C          5.67500        1.74680        0.28520
H          6.67060        2.13660        0.54960
H          5.36230        2.23510       -0.64960
H          4.97200        2.04850        1.07680
C          6.73750       -0.18040       -0.93620
H          6.77220       -1.27320       -1.06200
H          6.49120        0.26220       -1.91250
H          7.74550        0.16560       -0.65810
O          0.23970       -2.14290       -2.93870
O         -0.27860       -2.66840       -0.51680
