89
L00060-tbp.log
C         -2.43020       -1.41950       -1.01620
C         -2.99610       -0.53860       -1.93730
C         -4.20860        0.06570       -1.64330
C         -4.89370       -0.20140       -0.44430
C         -4.31250       -1.10910        0.44390
C         -3.08690       -1.71680        0.16730
H         -2.48420       -0.32600       -2.87780
H         -4.63360        0.76030       -2.37140
H         -4.80530       -1.35400        1.38470
H         -2.62950       -2.41240        0.87170
S         -0.87550       -2.20840       -1.39660
O         -1.03020       -2.87070       -2.69070
O         -0.51350       -2.99870       -0.22240
N          0.20810       -0.99190       -1.60920
C         -6.23070        0.49810       -0.16550
C         -6.01220        2.02230       -0.15410
H         -6.96220        2.54560        0.03750
H         -5.30050        2.30910        0.63500
H         -5.61640        2.38860       -1.11270
C         -7.23610        0.12870       -1.27170
H         -7.39710       -0.95950       -1.30650
H         -8.20720        0.61390       -1.08470
H         -6.88940        0.44860       -2.26530
C         -6.82800        0.08770        1.18620
H         -7.03590       -0.99210        1.23010
H         -6.16090        0.34560        2.02230
H         -7.78050        0.61510        1.34690
P          1.39220        0.06060       -0.42090
C          2.34240        1.71220       -0.41100
C          2.14270        2.86320        0.39740
C          3.28970        1.79700       -1.47190
C          2.89740        4.01680        0.13530
C          4.01880        2.96720       -1.67420
C          3.83850        4.10070       -0.88280
H          2.73990        4.88870        0.77770
C         -0.03780        0.29300        0.71310
C         -0.98570        1.25300        0.27390
C         -0.29220       -0.44740        1.89050
C         -2.08550        1.54410        1.07990
C         -1.40570       -0.09800        2.66380
C         -2.29830        0.90510        2.29800
H         -2.80800        2.28640        0.73060
H         -1.59420       -0.66490        3.58030
C          2.69640       -1.12430        0.17190
C          3.42290       -0.82130        1.35650
C          3.06410       -2.28750       -0.56130
C          4.41830       -1.69150        1.80560
C          4.06740       -3.12070       -0.05120
C          4.74930       -2.86100        1.13130
H          4.95120       -1.43900        2.72660
H          4.33030       -4.01450       -0.62330
H          0.48480       -0.97600       -2.58670
H          4.74760        2.99650       -2.48970
C          5.78840       -3.80930        1.66370
H          6.29000       -4.35420        0.85140
H          5.32330       -4.55830        2.32490
H          6.55340       -3.28080        2.25040
C          3.21020        0.40100        2.21190
H          2.15820        0.68600        2.29410
H          3.75150        1.26770        1.80500
H          3.58350        0.21730        3.22870
C          2.51020       -2.73790       -1.89290
H          2.39650       -1.91690       -2.60810
H          1.53720       -3.23160       -1.78600
H          3.20070       -3.46430       -2.34140
C          4.62310        5.35910       -1.13970
H          5.70200        5.14980       -1.19840
H          4.46290        6.10400       -0.34780
H          4.32830        5.81760       -2.09700
C          3.55700        0.65870       -2.42570
H          4.19960        0.99170       -3.25180
H          2.62400        0.27440       -2.86620
H          4.05880       -0.18600       -1.93090
C          1.18710        3.01290        1.56310
H          0.88290        2.07750        2.03500
H          0.26050        3.51390        1.24230
H          1.64800        3.64780        2.33320
C         -0.87200        1.99000       -1.03810
H         -0.63570        1.29600       -1.85590
H         -0.08430        2.75810       -1.02080
H         -1.82320        2.48540       -1.27480
C         -3.47630        1.24340        3.17030
H         -4.17770        1.91640        2.65770
H         -3.15080        1.74080        4.09750
H         -4.02600        0.33590        3.46340
C          0.51270       -1.63150        2.37070
H          0.84010       -2.26330        1.53950
H         -0.11640       -2.25250        3.02270
H          1.39290       -1.33220        2.95660
