104
L00004-tbp.log
P         -1.89750       -0.30150       -0.26300
C         -1.70690        0.47130       -1.91180
C         -0.52250        1.44380       -1.93710
H         -1.43810       -0.37830       -2.55980
C         -1.51010        2.57860       -3.95390
H          0.01940        1.04300       -3.98180
H         -1.32990        2.88800       -4.99560
H         -1.72740        3.50140       -3.38490
H          0.58870        2.61200       -3.39190
H         -0.74950        2.31180       -1.29580
H          0.36910        0.95960       -1.51240
C         -0.26380        1.91470       -3.36670
C         -2.63640        1.04210        0.82440
C         -4.00940        1.30190        0.94100
C         -3.59370        2.94440        2.65400
C         -1.73540        1.74380        1.64850
C         -2.22950        2.69500        2.54880
C         -4.48850        2.24510        1.84590
H         -4.72490        0.77010        0.31000
H         -5.56190        2.43580        1.91700
H         -1.52310        3.24140        3.17740
H         -3.96010        3.68400        3.36940
C         -0.25790        1.52040        1.58210
C         -3.26770       -1.53420       -0.37330
H         -4.18720       -0.95330       -0.56250
C         -4.47600       -4.22760       -0.20900
C         -3.43080       -2.25380        0.97460
H         -3.55960       -1.52060        1.78660
C         -4.60380       -3.23380        0.94540
H         -2.49840       -2.80500        1.18850
H         -3.59350       -4.86910       -0.03790
H         -5.54510       -2.66540        0.83660
H         -5.35070       -4.89650       -0.23690
H         -4.67120       -3.76570        1.90790
N         -0.37410       -1.56070       -0.44460
S          0.52790       -2.34630       -1.55230
H         -0.17190       -1.91860        0.48500
C          2.20130       -1.85190       -1.15400
C          2.72120       -0.66970       -1.66660
C          2.95020       -2.62290       -0.26800
C          3.98340       -0.24120       -1.26170
H          2.14010       -0.09110       -2.38640
C          4.20860       -2.18200        0.12660
H          2.54570       -3.57150        0.09060
C          4.74910       -0.97730       -0.34900
H          4.36440        0.69340       -1.67320
H          4.78450       -2.80450        0.81510
C          6.14890       -0.53730        0.10270
C          6.48330        0.88570       -0.36360
H          6.51760        0.96320       -1.46050
H          5.75190        1.61920        0.01080
H          7.47390        1.17840        0.01590
C          7.18440       -1.50790       -0.49580
H          8.20410       -1.21880       -0.19530
H          7.01160       -2.54030       -0.15680
H          7.13520       -1.50350       -1.59530
C          6.24580       -0.57190        1.63900
H          7.24720       -0.24900        1.96350
H          5.50810        0.10130        2.10230
H          6.07950       -1.58060        2.04350
O          0.20090       -1.80630       -2.87020
O          0.46750       -3.79220       -1.33590
C          0.57310        2.54090        1.07930
C          0.33750        0.34850        2.08230
C          2.51830        1.20310        1.53570
C          1.72820        0.18560        2.05390
C          1.96290        2.38030        1.04680
O         -0.07150        3.64510        0.64730
H          2.61350        3.15270        0.64020
H          3.59980        1.06700        1.49610
H          2.19890       -0.73060        2.40660
O         -0.51230       -0.59180        2.55520
C         -2.72510        1.65150       -3.88280
H         -2.55790        0.78700       -4.54870
H         -3.62350        2.16820       -4.25630
C         -2.97110        1.13960       -2.45980
H         -3.25800        1.98310       -1.80790
H         -3.81880        0.43490       -2.46120
C         -4.31140       -3.50600       -1.54650
H         -5.23660       -2.94680       -1.77650
H         -4.17540       -4.23530       -2.36000
C         -3.12270       -2.54300       -1.51930
H         -2.19410       -3.11830       -1.38570
H         -3.03330       -2.02460       -2.48630
C          0.62830        4.79540        0.19350
C         -0.07720       -1.59490        3.47010
C         -0.31770        5.96630        0.39550
H         -1.23690        5.81460       -0.18970
H          0.15520        6.90420        0.07030
H         -0.59570        6.05960        1.45450
C          1.05590        4.63650       -1.25980
H          1.51850        4.94560        0.83030
H          0.17080        4.56380       -1.90950
H          1.65950        3.72960       -1.40700
H          1.65110        5.50430       -1.58050
C         -1.25780       -1.87190        4.38490
H         -1.57350       -0.95060        4.89330
H         -0.99190       -2.62310        5.14260
H         -2.10810       -2.25150        3.79900
C          0.39380       -2.84740        2.74030
H          0.75500       -1.18310        4.06790
H         -0.43020       -3.29660        2.16430
H          0.74530       -3.59880        3.46240
H          1.22190       -2.63460        2.04930
