62
L00061-tbp.log
C         -2.09790       -1.36310       -0.92480
C         -2.69100       -0.53130       -1.87430
C         -3.88260        0.10860       -1.56450
C         -4.51850       -0.07370       -0.32260
C         -3.91230       -0.93700        0.59280
C         -2.70830       -1.57820        0.30160
H         -2.21430       -0.37530       -2.84420
H         -4.32740        0.76970       -2.31160
H         -4.36370       -1.11330        1.56850
H         -2.22950       -2.23370        1.02990
S         -0.56940       -2.20920       -1.28750
O         -0.77240       -3.01900       -2.48170
O         -0.13680       -2.82070       -0.03710
N          0.51710       -1.02770       -1.71140
C         -5.81820        0.68000       -0.01050
C         -5.52600        2.19210        0.00750
H         -6.45250        2.75950        0.18800
H         -4.81800        2.43750        0.81360
H         -5.09980        2.54020       -0.94550
C         -6.86770        0.36420       -1.09130
H         -7.07210       -0.71640       -1.13580
H         -7.81290        0.88280       -0.86720
H         -6.54270        0.68680       -2.09130
C         -6.39520        0.29060        1.35650
H         -6.63570       -0.78230        1.40790
H         -5.70010        0.53230        2.17440
H         -7.32600        0.84880        1.53770
P          1.61850        0.09510       -0.70030
C          2.70940        1.63980       -0.56130
C          2.35190        2.82180        0.10090
C          3.90080        1.62370       -1.30550
C          3.17200        3.94930        0.04480
H          1.43460        2.86900        0.69070
C          4.73210        2.73520       -1.36170
H          4.19190        0.71520       -1.84210
C          4.35160        3.89070       -0.68440
H          2.90960        4.87030        0.56800
C          0.29790        0.52330        0.48230
C         -0.67610        1.43920        0.06090
C          0.18040       -0.06280        1.74370
C         -1.74070        1.78010        0.88350
H         -0.61180        1.88630       -0.93430
C         -0.88980        0.26250        2.57700
H          0.90900       -0.80510        2.07420
C         -1.83640        1.17310        2.13010
H         -2.51100        2.47880        0.55710
H         -1.00890       -0.20120        3.55710
C          2.74780       -1.12270        0.05830
C          3.53940       -0.74300        1.15380
C          2.87090       -2.42490       -0.44100
C          4.42530       -1.63830        1.74270
H          3.46750        0.26980        1.55600
C          3.76500       -3.32550        0.12880
H          2.25980       -2.74790       -1.28220
C          4.52750       -2.92150        1.21690
H          5.04000       -1.35470        2.59800
H          3.86870       -4.34080       -0.25580
F          5.37880       -3.78120        1.77000
F         -2.88500        1.45850        2.90500
H          0.70200       -1.05450       -2.71100
H          5.66630        2.72520       -1.92540
F          5.13900        4.96440       -0.73980
