86
L00053-tbp-opt.log
C         -2.13110        0.18250        1.87630
C         -3.20900       -0.63770        2.19770
C         -4.37900       -0.55660        1.44840
C         -4.50380        0.33480        0.37170
C         -3.40280        1.14830        0.07540
C         -2.22650        1.07910        0.81760
H         -3.12560       -1.31890        3.04680
H         -5.21890       -1.19780        1.72620
H         -3.44090        1.85250       -0.75590
H         -1.37510        1.71080        0.56080
S         -0.60690        0.05820        2.81840
O         -0.92410       -0.72910        4.00550
O         -0.08180        1.41010        2.95330
N          0.42640       -0.81680        1.89930
C         -5.82430        0.41060       -0.40850
C         -6.21920       -0.98880       -0.91480
H         -7.16800       -0.93900       -1.47180
H         -5.45210       -1.39800       -1.58950
H         -6.35790       -1.70320       -0.09060
C         -6.92200        0.94170        0.53260
H         -6.66030        1.94050        0.91370
H         -7.88370        1.01710        0.00040
H         -7.06700        0.27990        1.39940
C         -5.72730        1.34800       -1.61920
H         -5.51550        2.38520       -1.31970
H         -4.94290        1.02970       -2.32390
H         -6.68310        1.35140       -2.16470
P          0.90480       -0.15480        0.03540
C          0.53980        0.57800       -1.65760
C          1.21300        1.60920       -2.33790
C         -0.65970        0.09620       -2.21630
C          0.67280        2.16250       -3.50920
O          2.39210        2.02290       -1.83780
C         -1.19630        0.62620       -3.39380
O         -1.24450       -0.90080       -1.51950
C         -0.52040        1.66810       -4.02200
H          1.19510        2.96180       -4.03440
C          2.23610        0.86770        0.75430
C          1.96800        2.23710        0.94430
C          3.41660        0.34550        1.29400
C          2.87890        3.06160        1.60590
O          0.80000        2.69740        0.44640
C          4.34160        1.17180        1.94080
O          3.69290       -0.98180        1.17470
C          4.06760        2.52240        2.09280
H          2.66260        4.11850        1.75530
H          5.26420        0.73190        2.32290
C          1.47810       -1.81150       -0.51760
C          2.66410       -1.87740       -1.27660
C          0.76570       -3.00730       -0.30540
C          3.17870       -3.09850       -1.72430
O          3.23940       -0.70170       -1.54630
C          1.26390       -4.23140       -0.77170
O         -0.40580       -2.93170        0.37140
C          2.46970       -4.26320       -1.46240
H          4.11190       -3.13680       -2.28470
H          0.72040       -5.15810       -0.59610
H          0.01310       -1.74670        1.79570
H         -2.12180        0.23860       -3.81800
C         -1.19760       -4.07400        0.55740
H         -2.09520       -3.73780        1.09140
H         -0.68420       -4.83790        1.16520
H         -1.49570       -4.51930       -0.40680
C          4.58450       -0.63090       -1.92600
H          4.84030        0.43540       -1.92590
H          4.74930       -1.03860       -2.93840
H          5.22460       -1.16000       -1.20120
C         -2.44510       -1.46390       -1.95760
H         -2.75290       -2.17790       -1.18400
H         -2.31930       -1.99190       -2.91900
H         -3.23700       -0.70390       -2.06050
C          2.88840        3.28640       -2.17230
H          3.70620        3.49290       -1.46900
H          2.11600        4.06710       -2.06140
H          3.28590        3.32010       -3.20220
C          0.26900        3.89660        0.94960
H          0.85990        4.77250        0.63060
H          0.20110        3.86000        2.04790
H         -0.74070        3.98980        0.52950
C          3.57500       -1.75070        2.35500
H          3.70830       -2.79960        2.05800
H          2.57830       -1.61660        2.80370
H          4.35310       -1.48500        3.09190
H          2.85820       -5.22120       -1.81510
H         -0.92860        2.09730       -4.93970
H          4.78110        3.17000        2.60710
