62
L000133-tbp.log
C         -2.10260       -1.28450       -0.87240
C         -2.68230       -0.54750       -1.90490
C         -3.89210        0.09280       -1.68220
C         -4.55770        0.00440       -0.44580
C         -3.96020       -0.76270        0.55720
C         -2.73870       -1.40530        0.35330
H         -2.18410       -0.46890       -2.87320
H         -4.33060        0.67390       -2.49650
H         -4.43460       -0.86620        1.53270
H         -2.26760       -1.98630        1.14750
S         -0.54620       -2.11330       -1.13120
O         -0.67960       -2.97450       -2.29780
O         -0.14440       -2.65260        0.16020
N          0.52450       -0.91630       -1.56590
C         -5.89140        0.73710       -0.24840
C         -5.68020        2.24570       -0.47260
H         -6.63040        2.78820       -0.34810
H         -4.96070        2.65270        0.25450
H         -5.30170        2.46430       -1.48200
C         -6.91670        0.20120       -1.26470
H         -7.07250       -0.88000       -1.13080
H         -7.88620        0.70660       -1.13290
H         -6.59240        0.36780       -2.30250
C         -6.45770        0.53630        1.16280
H         -6.66140       -0.52390        1.37570
H         -5.77410        0.91890        1.93630
H         -7.40810        1.08190        1.26220
P          1.57000        0.23460       -0.56270
C          2.63740        1.80210       -0.43330
C          2.22370        3.00790        0.14850
C          3.85860        1.76060       -1.12390
C          3.03420        4.14190        0.06270
H          1.28020        3.06530        0.69290
C          4.64710        2.89790       -1.18780
H          4.21410        0.84360       -1.60200
C          4.25400        4.10040       -0.60610
H          2.71080        5.07300        0.53350
C          0.23160        0.66310        0.60590
C         -0.75910        1.55320        0.16790
C          0.15900        0.11980        1.88770
C         -1.79360        1.92390        1.02030
H         -0.72260        1.95650       -0.84650
C         -0.89320        0.49650        2.71550
H          0.88630       -0.60870        2.24830
C         -1.86590        1.39900        2.30960
H         -2.56150        2.61730        0.67320
F         -0.97030       -0.03220        3.93650
C          2.71960       -0.94760        0.23010
C          3.47610       -0.53910        1.33940
C          2.88010       -2.24160       -0.27190
C          4.37210       -1.41920        1.94030
H          3.36720        0.47230        1.73500
C          3.79230       -3.09430        0.33520
H          2.30190       -2.60550       -1.11980
C          4.54150       -2.70800        1.43880
H          4.95010       -1.09630        2.80830
F          3.95230       -4.32030       -0.15860
H          5.24120       -3.41470        1.88750
H         -2.67270        1.66330        2.99480
H          0.72900       -0.95740       -2.56110
F          5.81490        2.84230       -1.82960
H          4.90170        4.97450       -0.68520
