55
L00081-tbp.log
C         -2.21030       -0.92030       -0.14880
C         -3.08000       -0.99210       -1.23460
C         -4.33850       -0.41070       -1.13480
C         -4.75900        0.24500        0.03330
C         -3.86410        0.28830        1.11000
C         -2.59890       -0.28960        1.02770
H         -2.77020       -1.51550       -2.14080
H         -5.01060       -0.47920       -1.99290
H         -4.14780        0.77330        2.04370
H         -1.91950       -0.26480        1.88150
S         -0.57350       -1.61670       -0.27790
O         -0.60830       -2.57850       -1.37670
O         -0.16440       -2.03760        1.05680
N          0.39350       -0.33880       -0.69870
C         -6.16000        0.86900        0.09110
C         -6.28670        1.92940       -1.01840
H         -7.28520        2.39340       -0.99110
H         -5.53600        2.72420       -0.88990
H         -6.14890        1.49500       -2.01950
C         -7.21310       -0.23410       -0.12280
H         -7.13190       -1.01020        0.65340
H         -8.22760        0.19220       -0.07700
H         -7.10160       -0.72430       -1.10110
C         -6.43730        1.54620        1.43920
H         -6.39180        0.83100        2.27460
H         -5.72670        2.36200        1.64190
H         -7.44770        1.98210        1.43330
P          1.96530        0.41380        0.05420
C          3.18690        1.80460       -0.09750
C          2.94410        3.05920        0.48890
C          4.25180        1.68930       -1.01160
C          3.76360        4.14920        0.20100
H          2.11440        3.19170        1.18750
C          5.07020        2.77760       -1.29060
H          4.44880        0.72820       -1.49530
C          4.83100        4.01440       -0.68580
H          3.56810        5.11200        0.67900
C          1.25090        0.68640        1.70740
C          3.06330       -1.04080        0.17530
C          4.19700       -0.96750        0.99900
C          2.80600       -2.22500       -0.52340
C          5.05550       -2.05630        1.11880
H          4.41710       -0.04760        1.54620
C          3.67150       -3.31140       -0.40560
H          1.92360       -2.31610       -1.15760
C          4.79490       -3.23140        0.41370
H          5.93200       -1.98620        1.76650
H          3.45680       -4.22880       -0.95710
H          5.46810       -4.08650        0.50650
H          0.33160       -0.16340       -1.69980
H          5.90390        2.66190       -1.98710
H          5.47240        4.86950       -0.90920
H          0.47380        1.46260        1.65340
H          0.79340       -0.25900        2.02720
H          2.03230        0.98680        2.41770
