54
L00072-tbp.log
C         -1.10010       -1.54590       -0.53220
C         -1.62240       -0.78950       -1.58090
C         -2.72660        0.02090       -1.35160
C         -3.34270        0.08980       -0.08970
C         -2.81880       -0.71150        0.92990
C         -1.70300       -1.52230        0.71780
H         -1.16470       -0.84130       -2.57150
H         -3.11890        0.61320       -2.18140
H         -3.27080       -0.70840        1.92150
H         -1.29230       -2.13750        1.52010
S          0.42610       -2.45380       -0.77170
O          0.37460       -3.05590       -2.09520
O          0.61930       -3.25750        0.43020
N          1.60670       -1.31620       -0.76590
C         -4.53650        1.03000        0.12190
C         -4.08860        2.47560       -0.16490
H         -4.92550        3.17430       -0.00790
H         -3.26550        2.77100        0.50410
H         -3.74110        2.59960       -1.20120
C         -5.67340        0.63680       -0.83890
H         -6.00060       -0.39820       -0.65680
H         -6.54050        1.30070       -0.69690
H         -5.36630        0.71170       -1.89240
C         -5.07280        0.96840        1.55750
H         -5.42940       -0.03940        1.81910
H         -4.31000        1.26790        2.29250
H         -5.92360        1.65810        1.66490
P          1.66200       -0.15870        0.83860
C          2.57240        1.13860       -0.07600
C          3.86010        1.54600        0.28850
C          1.92810        1.79420       -1.13420
C          4.49550        2.57970       -0.39850
H          4.38150        1.05410        1.11280
C          2.56100        2.83100       -1.81700
H          0.91660        1.49420       -1.42460
C          3.84800        3.22350       -1.45160
H          5.50420        2.88200       -0.10910
C          0.98710        0.91470        2.27440
C          2.86040       -1.17500        1.79350
H          1.67390       -0.85100       -1.67170
H          2.04600        3.33430       -2.63800
H          4.34710        4.03290       -1.98850
C          3.87300       -2.00020        1.01040
H          3.35860       -0.48860        2.49830
H          2.22820       -1.83850        2.40600
H          4.57900       -2.47800        1.70620
H          4.44990       -1.38270        0.30580
H          3.36480       -2.78120        0.43340
C         -0.09170        1.88660        1.81680
H          1.83430        1.44290        2.74800
H          0.58530        0.19740        3.00910
H          0.31250        2.63470        1.11720
H         -0.52040        2.43230        2.67140
H         -0.91310        1.35700        1.30840
