113
L000157-tbp.log
C          2.43860        1.76440       -0.72640
C          3.47260        1.92120       -1.64910
C          4.77980        1.66890       -1.25310
C          5.08970        1.26280        0.05640
C          4.02990        1.12830        0.95920
C          2.71240        1.37640        0.57760
H          3.25030        2.25790       -2.66350
H          5.57870        1.80050       -1.98610
H          4.21040        0.81410        1.98680
H          1.89540        1.26380        1.29100
S          0.75030        2.06220       -1.22640
O          0.78960        3.10810       -2.24640
O         -0.01420        2.25950       -0.00050
N          0.23490        0.68440       -1.96480
C          6.54980        0.99490        0.44500
C          7.15080       -0.06170       -0.50040
H          8.20100       -0.25780       -0.23280
H          6.59830       -1.01090       -0.43310
H          7.13220        0.26490       -1.55050
C          7.34570        2.30780        0.32560
H          6.92870        3.08060        0.98910
H          8.39850        2.14540        0.60590
H          7.32910        2.70220       -0.70130
C          6.67650        0.47600        1.88280
H          6.30980        1.20820        2.61800
H          6.12240       -0.46470        2.02560
H          7.73400        0.27810        2.11410
P         -0.71670       -0.87610       -1.39070
C         -1.55390       -2.65030       -1.64170
C         -1.50520       -3.69450       -0.50440
C          0.33780       -1.13850        0.11230
C          1.56840       -1.83840        0.18650
C         -0.17840       -0.53900        1.27310
C          2.09560       -2.00660        1.47890
C          0.40840       -0.63500        2.53060
H         -1.06680        0.07440        1.17370
C          1.54340       -1.44230        2.61910
H          3.00600       -2.59190        1.60410
C         -2.24770       -0.00130       -0.85600
C         -3.13680       -0.61210        0.03040
C         -2.54830        1.27500       -1.33580
C         -4.30250        0.02860        0.46230
H         -2.90520       -1.60190        0.42360
C         -3.68010        1.96400       -0.90550
H         -1.86520        1.74510       -2.03540
C         -4.54360        1.32090       -0.00810
H         -5.42700        1.85690        0.33850
H          2.03440       -1.61500        3.57980
H          0.38920        0.74280       -2.96780
C         -3.93530        3.42020       -1.31720
C         -5.38430        3.59750       -1.80150
H         -5.59100        2.95230       -2.66950
H         -5.55880        4.64200       -2.10370
H         -6.11920        3.35720       -1.01880
C         -2.99030        3.87550       -2.43800
H         -3.10640        3.25600       -3.34130
H         -1.93340        3.84510       -2.13470
H         -3.22270        4.91490       -2.71580
C         -3.68140        4.30360       -0.08050
H         -2.64860        4.17290        0.27620
H         -4.36250        4.04650        0.74550
H         -3.83310        5.36680       -0.32710
C         -5.25210       -0.71190        1.41630
C         -5.73360       -2.00530        0.73210
H         -6.25370       -1.77880       -0.21130
H         -6.43100       -2.55190        1.38670
H         -4.89610       -2.68050        0.49960
C         -4.51040       -1.06620        2.71780
H         -3.61330       -1.67500        2.52790
H         -5.16690       -1.64000        3.39100
H         -4.19250       -0.15620        3.24870
C         -6.48180        0.13020        1.77690
H         -7.07300        0.39200        0.88620
H         -6.20180        1.06210        2.29130
H         -7.13680       -0.43800        2.45500
C         -0.15780        0.10180        3.74900
C          0.97560        0.86000        4.46310
H          1.76080        0.18390        4.83300
H          0.57850        1.40910        5.33120
H          1.44530        1.59130        3.78710
C         -1.23040        1.12200        3.34150
H         -1.57490        1.67310        4.22990
H         -2.11000        0.63750        2.89370
H         -0.84180        1.84900        2.61220
C         -0.77740       -0.92810        4.71000
H         -0.03310       -1.66670        5.04580
H         -1.59760       -1.47420        4.21930
H         -1.18560       -0.42850        5.60320
C          2.40480       -2.45150       -0.96630
C          3.91180       -2.24060       -0.70110
H          4.13060       -1.18040       -0.51280
H          4.48500       -2.55520       -1.58670
H          4.29210       -2.82930        0.14530
C          2.13290       -3.96420       -1.03660
C          2.15250       -1.81110       -2.33630
H          2.41430       -0.74480       -2.32240
H          1.11290       -1.89830       -2.67520
H          2.77750       -2.31230       -3.09130
C         -1.13370       -3.41470       -2.90250
C         -1.79210       -4.78010       -2.69570
H         -0.04150       -3.53910       -2.96060
H         -1.45110       -2.90790       -3.82630
C         -1.55890       -5.07650       -1.20520
H         -1.38930       -5.56160       -3.35720
H         -2.87210       -4.70150       -2.90360
H          2.76730       -4.43360       -1.80560
H          1.08690       -4.17590       -1.28730
H         -2.59840       -2.34220       -1.80210
H         -0.60330       -5.60800       -1.07290
H         -2.33800       -5.72770       -0.78310
H         -2.34950       -3.55830        0.18790
H         -0.59610       -3.59330        0.10620
H          2.34920       -4.45020       -0.07290
