62
L00017-tbp.log
C         -1.87160       -1.37700       -0.64030
C         -2.47890       -0.68840       -1.69000
C         -3.67270       -0.02090       -1.46130
C         -4.29460       -0.03240       -0.19940
C         -3.67010       -0.75080        0.82290
C         -2.46430       -1.42030        0.61170
H         -2.01270       -0.66720       -2.67700
H         -4.13290        0.52140       -2.29030
H         -4.10920       -0.79160        1.81920
H         -1.96900       -1.95940        1.42010
S         -0.33130       -2.23510       -0.90800
O         -0.52320       -3.17190       -2.00840
O          0.11380       -2.70140        0.39830
N          0.72300       -1.08010       -1.46020
C         -5.61150        0.72880        0.00370
C         -5.39150        2.21930       -0.31370
H         -6.32960        2.78140       -0.18400
H         -4.63870        2.65610        0.36050
H         -5.04990        2.37520       -1.34750
C         -6.67960        0.15050       -0.94290
H         -6.84390       -0.91890       -0.74110
H         -7.63750        0.67690       -0.80710
H         -6.39000        0.25210       -1.99920
C         -6.12810        0.61620        1.44340
H         -6.33620       -0.42750        1.72360
H         -5.41160        1.03240        2.16830
H         -7.06780        1.17970        1.54560
P          1.82840        0.14200       -0.57990
C          2.87440        1.72050       -0.62350
C          2.49460        2.95050       -0.06980
C          4.04000        1.66520       -1.40620
C          3.27790        4.08820       -0.27400
H          1.59600        3.02530        0.54530
C          4.82320        2.79730       -1.59980
H          4.34340        0.71510       -1.85750
C          4.44200        4.01730       -1.03540
H          2.97580        5.03690        0.17610
C          0.55800        0.62030        0.64150
C         -0.46700        1.47950        0.22090
C          0.56350        0.15330        1.95670
C         -1.44920        1.89520        1.11310
H         -0.49750        1.82590       -0.81540
C         -0.42910        0.56400        2.84790
H          1.33250       -0.54800        2.28520
C         -1.42830        1.44000        2.43190
H         -2.24180        2.56430        0.77300
H         -0.41980        0.19020        3.87390
C          3.03420       -0.98870        0.20220
C          3.88430       -0.50030        1.20710
C          3.15090       -2.32610       -0.19200
C          4.82370       -1.33430        1.80650
H          3.81270        0.54280        1.52300
C          4.10200       -3.15450        0.39990
H          2.49330       -2.72760       -0.96150
C          4.93690       -2.66400        1.40120
H          5.47270       -0.94100        2.59180
H          4.18210       -4.19460        0.07760
H          5.67690       -3.31810        1.86760
H         -2.20330        1.75940        3.13240
H          0.89190       -1.19560       -2.45620
H          5.73490        2.73120       -2.19810
H          5.05210        4.90950       -1.19190
