76
L00042-tbp.log
C         -2.47920        1.51920        0.56970
C         -2.98810        0.66340        1.54610
C         -3.93950       -0.28570        1.19430
C         -4.41480       -0.40090       -0.12340
C         -3.91060        0.49450       -1.07260
C         -2.94980        1.44880       -0.73470
H         -2.64670        0.75950        2.57920
H         -4.32370       -0.95030        1.97140
H         -4.25880        0.45850       -2.10470
H         -2.56640        2.15050       -1.47770
S         -1.19140        2.69210        0.99960
O         -1.46490        3.13530        2.36360
O         -1.16630        3.65740       -0.09540
N          0.20940        1.86240        1.01680
C         -5.44180       -1.48760       -0.46720
C         -4.83660       -2.86690       -0.14540
H         -5.55160       -3.66680       -0.39460
H         -3.91650       -3.03580       -0.72560
H         -4.58400       -2.96620        0.92060
C         -6.71470       -1.26990        0.37090
H         -7.15780       -0.28420        0.16230
H         -7.46510       -2.04060        0.13440
H         -6.51020       -1.32450        1.45030
C         -5.82920       -1.46720       -1.95110
H         -6.29190       -0.51160       -2.24080
H         -4.95970       -1.64270       -2.60300
H         -6.56110       -2.26350       -2.15410
P          0.76830        0.36700       -0.37970
C          1.45920       -0.61670        1.04810
C          2.74060       -1.15840        1.30220
C          0.42750       -0.93380        1.95670
C          2.92150       -1.96980        2.43650
C          0.62310       -1.74370        3.06730
H         -0.57040       -0.52820        1.78270
C          1.88740       -2.26850        3.31300
H          3.92000       -2.37180        2.62270
C          0.20320       -1.11320       -1.53960
C          1.94410        1.53320       -1.30950
H          0.39380        1.57350        1.97670
H         -0.21300       -1.95750        3.73580
H          2.07100       -2.90330        4.18220
C          2.70770        2.41920       -0.31040
H          2.04370        3.16920        0.13150
H          3.52400        2.92820       -0.84780
H          3.15370        1.84670        0.50860
C          1.05430        2.46750       -2.15520
H          1.70410        3.23950       -2.59880
H          0.29930        2.98140       -1.54460
H          0.55650        1.94740       -2.98330
C          2.93350        0.82360       -2.24270
H          2.42900        0.24330       -3.02620
H          3.62880        0.16480       -1.71320
H          3.53230        1.59440       -2.75360
C         -0.95930       -1.80280       -0.80790
H         -1.74600       -1.09370       -0.51580
H         -0.62570       -2.34300        0.08900
H         -1.41320       -2.54630       -1.48450
C          1.28220       -2.16050       -1.81620
H          2.16850       -1.74960       -2.31520
H          0.86330       -2.94640       -2.46940
H          1.59990       -2.64890       -0.88400
C         -0.34410       -0.53530       -2.84900
H         -1.09290        0.24920       -2.66280
H         -0.84040       -1.33960       -3.41700
H          0.44240       -0.12150       -3.49400
H          7.33880       -0.54940       -1.45950
C          6.40630       -0.67160       -0.90460
H          5.86460       -2.51020       -1.90040
H          6.70560        1.09230        0.30580
C          5.57870       -1.76490       -1.15520
C          6.04910        0.24990        0.07810
C          4.85670        0.09480        0.78190
C          3.98690       -0.96300        0.49440
C          4.38400       -1.91390       -0.45340
H          4.59850        0.80170        1.57260
H          3.75130       -2.78090       -0.64430
