68
L00162-tbp-opt2.log
P          1.84070       -0.32450       -0.11140
C          0.40350       -1.39000        0.31780
C          0.26140       -1.97220        1.58680
C         -1.75710       -3.10090        0.88990
C         -0.54130       -1.70960       -0.66430
C         -0.81390       -2.81040        1.87370
H          0.99770       -1.78360        2.36960
C         -1.61170       -2.55370       -0.38270
H         -0.90830       -3.24450        2.87140
H         -2.34020       -2.77530       -1.16520
H         -2.59780       -3.76160        1.11400
H         -0.44450       -1.27890       -1.65990
C          1.88810        1.11380        1.02280
C          1.20540        1.16620        2.24150
C          2.16410        3.33380        2.71170
C          2.69870        2.19400        0.65370
H          0.54020        0.35480        2.53960
C          2.84350        3.29170        1.49550
C          1.33950        2.27320        3.07950
H          2.26790        4.20050        3.36810
H          3.47360        4.12860        1.18860
H          0.79150        2.30540        4.02360
H          3.19660        2.19000       -0.31810
C          3.27420       -1.37980        0.75030
C          3.32100       -2.78890        0.15540
C          4.62320       -0.67630        0.58890
H          3.00750       -1.41440        1.82020
C          3.80180       -2.78980       -1.29790
H          2.34110       -3.28410        0.23590
H          4.02020       -3.39220        0.76350
C          5.10850       -0.66640       -0.86240
H          4.58320        0.34650        0.99390
H          5.36200       -1.21790        1.20800
C          5.14790       -2.07910       -1.44770
H          3.04970       -2.28470       -1.93070
H          3.87120       -3.82450       -1.66860
H          4.43340       -0.03830       -1.47130
H          6.10400       -0.19930       -0.92230
H          5.92300       -2.66440       -0.92070
H          5.44860       -2.04760       -2.50680
N          1.09350        0.63150       -1.56270
S          0.03680        1.89650       -1.80280
H          1.36390        0.25840       -2.46970
C         -1.52200        1.30950       -1.16580
C         -1.76290        1.35080        0.20190
C         -2.45870        0.75800       -2.03550
C         -2.93510        0.79290        0.70670
H         -1.03200        1.81470        0.86680
C         -3.63240        0.22450       -1.51670
H         -2.26010        0.75770       -3.10890
C         -3.89050        0.21300       -0.13650
H         -3.09480        0.82160        1.78420
H         -4.36420       -0.19390       -2.21140
C         -5.20160       -0.38740        0.38930
C         -5.23970       -0.43310        1.92210
H         -4.40490       -1.02430        2.32970
H         -5.20080        0.57310        2.36560
H         -6.17760       -0.90200        2.25630
C         -5.36630       -1.82590       -0.13310
H         -6.30990       -2.25820        0.23510
H         -5.39050       -1.86970       -1.23160
H         -4.54000       -2.46310        0.21450
C         -6.37400        0.47860       -0.10800
H         -6.27480        1.51490        0.24920
H         -6.42050        0.50560       -1.20690
H         -7.33180        0.07800        0.26040
O         -0.09010        2.03790       -3.24980
O          0.41770        3.03160       -0.97910
