62
L00126-tbp-opt2.log
C         -2.30130       -1.37940       -1.16230
C         -2.87060       -0.48820       -2.07150
C         -4.07030        0.13070       -1.75180
C         -4.73890       -0.13310       -0.54210
C         -4.15220       -1.04940        0.33420
C         -2.93950       -1.66980        0.03420
H         -2.36970       -0.27030       -3.01700
H         -4.49690        0.83800       -2.46620
H         -4.62740       -1.28550        1.28570
H         -2.47700       -2.36840        0.73250
S         -0.76440       -2.19860       -1.54280
O         -0.93690       -2.94220       -2.78350
O         -0.34450       -2.87240       -0.32090
N          0.32020       -0.98450       -1.88440
C         -6.05330        0.59160       -0.22270
C         -5.76580        2.09640       -0.06430
H         -6.70090        2.64780        0.12130
H         -5.09510        2.27290        0.79050
H         -5.29900        2.52150       -0.96590
C         -7.05550        0.37030       -1.37020
H         -7.25120       -0.70250       -1.51930
H         -8.01210        0.86400       -1.13890
H         -6.69410        0.78270       -2.32360
C         -6.68890        0.08490        1.07830
H         -6.92080       -0.99000        1.02710
H         -6.03510        0.26060        1.94540
H         -7.63250        0.62060        1.26170
P          1.40140        0.06410       -0.79670
C          2.47640        1.60590       -0.55390
C          2.08870        2.75620        0.14560
C          3.68270        1.63720       -1.27320
C          2.89330        3.89580        0.15000
H          1.16040        2.77030        0.71960
C          4.49750        2.76170       -1.26820
H          3.99980        0.75620       -1.84000
C          4.09380        3.89260       -0.55480
H          2.59400        4.78390        0.70870
C          0.07630        0.39810        0.41320
C         -0.91060        1.32690        0.05740
C         -0.02260       -0.26350        1.63740
C         -1.96640        1.61160        0.91300
H         -0.86400        1.83190       -0.91070
C         -1.08330        0.00580        2.50200
H          0.71440       -1.01870        1.91610
C         -2.04450        0.94100        2.13230
H         -2.73690        2.32750        0.62700
H         -1.17090       -0.52050        3.45320
C          2.54370       -1.19110       -0.12130
C          3.33800       -0.87630        0.99200
C          2.67250       -2.45770       -0.70110
C          4.23380       -1.80070        1.51770
H          3.26190        0.10780        1.45930
C          3.57580       -3.38600       -0.19290
H          2.06020       -2.73370       -1.55810
C          4.34930       -3.05360        0.91660
H          4.84450       -1.55310        2.38670
H          3.67390       -4.37020       -0.65200
Cl         5.47440       -4.21240        1.56040
Cl        -3.38910        1.25870        3.19440
H          0.52100       -0.95340       -2.88090
H          5.44070        2.77210       -1.81630
Cl         5.10190        5.31180       -0.55040
