72
L00212-tbp.log
C         -2.49800       -1.48220       -0.30620
C         -3.28950       -1.40120       -1.45100
C         -4.53800       -0.79800       -1.37090
C         -5.03000       -0.27550       -0.16280
C         -4.22040       -0.39630        0.97250
C         -2.96280       -0.99570        0.90960
H         -2.93000       -1.82430       -2.39120
H         -5.14660       -0.74160       -2.27620
H         -4.56430       -0.02500        1.93780
H         -2.33970       -1.09490        1.80040
S         -0.85750       -2.18270       -0.40500
O         -0.89800       -3.20870       -1.44080
O         -0.43530       -2.49460        0.95170
N          0.08210       -0.91530       -0.92220
C         -6.41320        0.38860       -0.13110
C         -6.41830        1.58660       -1.09890
H         -7.40130        2.08320       -1.08790
H         -5.65700        2.32740       -0.81000
H         -6.21240        1.27860       -2.13460
C         -7.47760       -0.63520       -0.56710
H         -7.48220       -1.50670        0.10520
H         -8.47960       -0.17850       -0.54370
H         -7.30210       -1.00060       -1.58960
C         -6.77880        0.89820        1.26870
H         -6.82050        0.08090        2.00450
H         -6.06350        1.65310        1.62960
H         -7.77250        1.37030        1.24300
P          1.78960       -0.34670       -0.31030
C          3.39390        0.57580       -0.68080
C          3.32040        1.95760       -0.97970
C          4.62400       -0.08420       -0.81460
C          4.48570        2.64450       -1.32910
C          5.77260        0.61340       -1.18430
H          4.69310       -1.15310       -0.60240
C          5.70840        1.98200       -1.43330
H          4.42260        3.71510       -1.53970
C          1.24780        0.55470        1.18380
C         -0.08550        0.93440        1.35690
C          2.19620        0.95370        2.13650
C         -0.46740        1.68480        2.46610
H         -0.81980        0.66800        0.59840
C          1.81090        1.69440        3.25080
H          3.25090        0.70570        1.99690
C          0.47620        2.06130        3.41920
H         -1.51220        1.98330        2.57680
H          2.56040        1.99320        3.98680
C          2.43170       -1.99520        0.14170
C          2.87420       -2.31130        1.42800
C          2.50090       -2.96410       -0.86570
C          3.39650       -3.57410        1.69830
H          2.79110       -1.58130        2.23410
C          3.02680       -4.22440       -0.59470
H          2.11700       -2.74460       -1.86440
C          3.47940       -4.53020        0.68760
H          3.72960       -3.81540        2.70990
H          3.06980       -4.97430       -1.38710
H          3.88480       -5.52120        0.90310
H          0.17490        2.64850        4.28970
H         -0.02520       -0.77060       -1.92380
H          6.72380        0.08270       -1.26680
H          6.60610        2.53450       -1.71870
C          2.02560        2.69630       -0.90990
C          1.81580        3.67310        0.07010
C          0.58680        4.31960        0.17510
C         -0.44880        4.00300       -0.70320
C         -0.24350        3.04830       -1.69800
C          0.98700        2.40320       -1.80300
H         -1.04640        2.80330       -2.39680
H          1.15130        1.66150       -2.58840
H          0.43250        5.06510        0.95800
H         -1.41600        4.50230       -0.61410
H          2.61600        3.89830        0.77870
