64
L00284-tbp.log
C         -1.78750       -1.46420       -0.90890
C         -2.87950       -1.12130       -1.70010
C         -3.93650       -0.42260       -1.12790
C         -3.92160       -0.03990        0.22210
C         -2.81120       -0.41060        0.99070
C         -1.75320       -1.12750        0.43950
H         -2.89450       -1.41320       -2.75170
H         -4.79350       -0.17210       -1.75680
H         -2.75130       -0.13790        2.04360
H         -0.89590       -1.41010        1.05390
S         -0.39410       -2.29650       -1.64090
O         -0.79380       -2.78180       -2.95650
O          0.10590       -3.21420       -0.62880
N          0.74610       -1.11010       -1.91950
C         -5.11360        0.72700        0.81110
C         -5.41790        1.96820       -0.04700
H         -6.27410        2.51900        0.37280
H         -4.55390        2.64820       -0.07200
H         -5.67250        1.70560       -1.08400
C         -6.33990       -0.20470        0.81940
H         -6.14500       -1.10360        1.42390
H         -7.21420        0.31320        1.24480
H         -6.60410       -0.53440       -0.19660
C         -4.84260        1.19730        2.24600
H         -4.69770        0.35270        2.93610
H         -3.95220        1.84300        2.29780
H         -5.70180        1.77760        2.61510
P          1.71980        0.11420       -0.87670
C          3.17010        1.29700       -0.67810
C          3.02870        2.63540       -1.08050
C          4.44880        0.82730       -0.34000
C          4.12790        3.48910       -1.10010
H          2.04470        3.01890       -1.36340
C          5.54650        1.68500       -0.36140
H          4.59120       -0.21410       -0.04000
C          5.39140        3.01860       -0.73910
H          3.99670        4.53220       -1.39770
C          0.35670        1.20710       -0.33760
C         -0.67190        1.51850       -1.23390
C          0.37140        1.81370        0.92500
C         -1.67210        2.41830       -0.87700
H         -0.70240        1.03940       -2.21360
C         -0.63960        2.70220        1.28470
H          1.16920        1.56660        1.62520
C         -1.65860        3.01030        0.38480
H         -2.47040        2.64730       -1.58580
H         -0.62530        3.16320        2.27480
C          2.17230       -1.09280        0.43870
N          2.06470       -0.67560        1.69670
C          2.70770       -2.33380        0.09250
C          2.46820       -1.46840        2.69240
C          3.15310       -3.15710        1.12030
H          2.74710       -2.64960       -0.94890
C          3.03100       -2.72380        2.43620
H          3.58080       -4.13630        0.89590
H          3.36490       -3.35220        3.26410
H         -2.44380        3.71570        0.66780
H          0.78280       -0.91720       -2.91750
H          6.53160        1.30790       -0.07700
H          6.25320        3.68920       -0.75540
C          2.29480       -0.93790        4.08840
H          1.23390       -0.71790        4.27950
H          2.84950        0.00500        4.20600
H          2.64750       -1.65130        4.84480
