74
L00249-tbp.log
C         -2.68920       -1.29410       -0.75950
C         -3.19510       -0.40350       -1.70560
C         -4.31540        0.35260       -1.39540
C         -4.96400        0.23500       -0.15280
C         -4.44290       -0.68090        0.76380
C         -3.31140       -1.44270        0.46980
H         -2.69950       -0.28970       -2.67160
H         -4.69190        1.05500       -2.14240
H         -4.90620       -0.81000        1.74160
H         -2.89640       -2.13720        1.20100
S         -1.26320       -2.29450       -1.14260
O         -1.61500       -3.18130       -2.24560
O         -0.80320       -2.85510        0.12350
N         -0.13900       -1.23480       -1.73670
C         -6.18940        1.10800        0.14870
C         -5.77810        2.59080        0.08910
H         -6.64540        3.23840        0.29330
H         -5.00440        2.81220        0.84030
H         -5.37940        2.86780       -0.89800
C         -7.28230        0.83060       -0.89980
H         -7.58080       -0.22870       -0.88360
H         -8.17490        1.44200       -0.69310
H         -6.94480        1.06890       -1.91910
C         -6.77220        0.82660        1.53920
H         -7.10410       -0.21790        1.64000
H         -6.04480        1.03700        2.33820
H         -7.64770        1.47070        1.71190
P          1.17290       -0.16780       -0.91670
C          2.28480        1.35930       -0.98560
C          2.14190        2.48140       -0.17200
C          3.23690        1.38020       -2.02270
C          2.95030        3.61370       -0.36610
H          1.42320        2.51100        0.64810
C          4.04070        2.49440       -2.20290
H          3.35200        0.50980       -2.67480
C          3.90720        3.62220       -1.38390
C          0.07170        0.28720        0.46810
C         -0.88470        1.27670        0.21550
C          0.07890       -0.35140        1.72050
C         -1.81790        1.64650        1.17780
H         -0.90370        1.76110       -0.76430
C         -0.88000       -0.00030        2.68150
C         -1.81230        0.99560        2.40920
H         -2.55780        2.41670        0.95620
H         -0.88860       -0.50270        3.64920
C          2.42920       -1.43750       -0.51110
C          3.57320       -1.04720        0.20430
C          2.28410       -2.76690       -0.90650
C          4.56130       -1.97810        0.51880
H          3.67250       -0.01340        0.52900
C          3.28020       -3.69360       -0.58770
H          1.40110       -3.09590       -1.44850
C          4.41140       -3.31370        0.11750
H          3.16240       -4.73340       -0.90010
H          5.19750       -4.02690        0.37110
H         -2.54960        1.25970        3.17100
H         -0.00680       -1.39670       -2.73250
H          4.78830        2.50230       -2.99970
H          4.54600        4.48860       -1.55490
O          5.68760       -1.67910        1.20280
C          5.90120       -0.35330        1.60420
H          6.87350       -0.33110        2.11150
H          5.12370       -0.00670        2.30750
H          5.92960        0.33690        0.74270
O          2.73600        4.63860        0.48730
C          3.51230        5.79780        0.36750
H          3.17570        6.48520        1.15310
H          3.37540        6.28480       -0.61410
H          4.58710        5.58960        0.51320
O          1.03330       -1.26460        1.93780
C          0.82480       -2.29980        2.86260
H          1.62980       -3.02550        2.69320
H         -0.14360       -2.79220        2.68310
H          0.88210       -1.93930        3.90440
