53
L00236-tbp.log
P         -1.71260        0.02680       -0.50860
C         -0.53020        0.35160        0.82400
C         -0.46330       -0.28900        2.03590
S          0.71230        1.54880        0.68450
H         -1.14540       -1.09230        2.31490
C          0.59090        0.19830        2.85940
C          1.30640        1.19510        2.25330
H          0.80870       -0.17860        3.85860
H          2.16440        1.73840        2.64700
C         -3.01770       -1.01040        0.17540
S         -4.43860       -0.31570        0.89060
C         -3.05350       -2.38620        0.25400
H         -2.24250       -3.02120       -0.09750
H         -6.03690       -1.95020        1.76730
C         -5.06950       -1.86110        1.27430
C         -4.23130       -2.87190        0.88220
H         -4.44600       -3.92960        1.03440
C         -2.59740        1.69300       -0.47600
C         -2.54470        2.74470        0.41280
S         -3.57260        2.10780       -1.84780
H         -1.98160        2.70570        1.34550
C         -3.93580        3.65780       -1.20870
C         -3.31990        3.86400       -0.00290
H         -3.42080        4.78410        0.57370
H         -4.58580        4.34170       -1.75280
N         -0.70370       -1.26820       -1.36850
S          0.44210       -2.39470       -0.93950
H         -0.96510       -1.41300       -2.34160
C          1.92560       -1.45600       -0.64880
C          2.56440       -1.54230        0.57770
C          2.44900       -0.66450       -1.67150
C          3.72640       -0.80120        0.79670
H          2.13780       -2.16870        1.36200
C          3.59960        0.07070       -1.43480
H          1.94650       -0.61380       -2.63930
C          4.25910        0.02840       -0.19270
H          4.20350       -0.87390        1.77370
H          3.98950        0.69950       -2.23800
C          5.50330        0.89670        0.03350
C          6.09370        0.70710        1.43630
H          5.37840        0.98970        2.22400
H          6.40700       -0.33330        1.61150
H          6.98250        1.34510        1.55390
C          5.11070        2.37700       -0.13110
H          5.98290        3.02730        0.04020
H          4.72710        2.59030       -1.13960
H          4.32750        2.65720        0.59040
C          6.58220        0.52660       -1.00050
H          6.86830       -0.53200       -0.90670
H          6.23800        0.69180       -2.03190
H          7.48390        1.14040       -0.84840
O          0.64760       -3.21270       -2.12740
O          0.07910       -3.01720        0.32880
