92
L00246-tbp.log
C         -2.57130       -1.46450       -1.34060
C         -3.15860       -0.60270       -2.26380
C         -4.38510       -0.01880       -1.96900
C         -5.05330       -0.28130       -0.76130
C         -4.43520       -1.15310        0.14170
C         -3.20810       -1.74830       -0.14070
H         -2.65820       -0.38870       -3.21040
H         -4.82950        0.64980       -2.70730
H         -4.90700       -1.37810        1.09810
H         -2.73200       -2.42460        0.57000
S         -1.02910       -2.27920       -1.72140
O         -1.19830       -2.97740       -2.99130
O         -0.65260       -3.01600       -0.52070
N          0.07240       -1.07520       -2.00110
C         -6.44610        0.29670       -0.47280
C         -6.63920        1.67280       -1.13050
H         -7.62540        2.07940       -0.85970
H         -5.87400        2.39010       -0.80050
H         -6.60680        1.61960       -2.22840
C         -7.48760       -0.67990       -1.05360
H         -7.38580       -1.67800       -0.60130
H         -8.50950       -0.31610       -0.85920
H         -7.36300       -0.78980       -2.14170
C         -6.68500        0.44370        1.04000
H         -6.78220       -0.53250        1.53700
H         -5.86230        0.98280        1.53380
H         -7.62380        0.98920        1.22000
P          1.13780       -0.00900       -0.86740
C          2.20470        1.52940       -0.60120
C          1.82740        2.65300        0.13870
C          3.41670        1.56450       -1.30590
C          2.63650        3.79430        0.19450
H          0.90080        2.64380        0.71710
C          4.25460        2.67530       -1.26620
H          3.72770        0.68880       -1.88610
C          3.84110        3.79300       -0.51980
C         -0.22290        0.30940        0.30150
C         -1.16110        1.28750       -0.03860
C         -0.40160       -0.43370        1.46720
C         -2.25120        1.56760        0.78270
H         -1.05110        1.84490       -0.97360
C         -1.49570       -0.19980        2.30390
H          0.29610       -1.23670        1.71410
C         -2.40030        0.81130        1.95460
C          2.25350       -1.26810       -0.15930
C          3.00950       -0.95120        0.97890
C          2.37130       -2.54220       -0.71310
C          3.87330       -1.87840        1.55580
H          2.92350        0.03990        1.43120
C          3.22800       -3.49970       -0.16470
H          1.76990       -2.81620       -1.57860
C          3.97930       -3.14830        0.96390
O          4.80860       -4.06490        1.55080
O         -3.49990        1.00500        2.75000
H          0.30370       -1.03530       -2.99030
O          4.67170        4.88140       -0.45790
C          6.07830       -4.19310        0.95750
H          6.64750       -4.91540        1.55690
H          6.61970       -3.23040        0.94690
H          6.01200       -4.56540       -0.07950
C         -3.38050        2.03240        3.70460
H         -4.30960        2.04500        4.28900
H         -3.24510        3.01950        3.22920
H         -2.53000        1.85490        4.38590
C          4.39760        5.89940       -1.38940
H          5.15990        6.67840       -1.25730
H          3.40090        6.34640       -1.22820
H          4.44450        5.52550       -2.42750
C          3.30730       -4.88190       -0.75510
H          2.33900       -5.16900       -1.18770
H          3.58190       -5.61880        0.01200
H          4.05960       -4.93700       -1.55930
C          4.66930       -1.55760        2.79170
H          4.41020       -0.56270        3.17860
H          5.75160       -1.56860        2.58880
H          4.48660       -2.30200        3.58040
C          5.57910        2.69810       -1.98010
H          5.81880        1.71010       -2.39610
H          6.38640        2.99880       -1.29660
H          5.57900        3.42150       -2.81080
C          2.23740        4.98830        1.02040
H          3.12120        5.48350        1.44590
H          1.56800        4.69200        1.84000
H          1.70070        5.73600        0.41320
C         -1.74640       -1.04310        3.52380
H         -0.99260       -1.83640        3.61350
H         -2.74140       -1.51080        3.47400
H         -1.72310       -0.44450        4.44760
C         -3.24860        2.62850        0.41000
H         -3.32340        2.72440       -0.68220
H         -2.95880        3.61330        0.81230
H         -4.24330        2.38590        0.80590
