101
L00304-tbp.log
P          2.01620        0.07410        0.55800
C          0.59470        0.93990       -0.30560
C          0.44810        1.10120       -1.70340
C         -0.44380        1.42960        0.53710
C         -1.72690        2.18540       -1.40630
C         -1.56670        2.02890       -0.03420
C         -0.69640        1.72560       -2.21480
H         -0.77970        1.83610       -3.29780
H         -2.36930        2.37390        0.62290
C          3.10130       -1.07690       -0.47120
C          4.26270       -0.50980       -1.31030
C          3.64080       -2.26150        0.36040
H          2.36830       -1.52240       -1.15810
C          4.76220       -1.58350       -2.28110
H          5.09990       -0.21330       -0.66130
H          3.98620        0.39200       -1.87120
C          4.16670       -3.35220       -0.57670
H          4.44890       -1.92390        1.03330
H          2.85240       -2.69020        0.98920
C          5.23820       -2.82730       -1.53100
H          5.57620       -1.17540       -2.90130
H          3.94370       -1.85520       -2.97110
H          4.56040       -4.19250        0.01630
H          3.31240       -3.74750       -1.15230
H          5.53750       -3.61360       -2.24200
H          6.14320       -2.56810       -0.95210
C          3.27020        1.56060        0.78520
C          2.71300        2.86580        1.36270
C          4.53070        1.11990        1.54560
H          3.53210        1.74890       -0.26980
C          2.63180        2.90930        2.89150
H          1.73640        3.10010        0.91200
H          3.39170        3.67560        1.03720
C          4.37570        1.13730        3.06430
H          4.85930        0.12300        1.22930
H          5.34950        1.80890        1.26790
C          3.94780        2.51630        3.55340
H          1.85700        2.21430        3.24660
H          2.31490        3.91400        3.21240
H          3.61760        0.39090        3.36380
H          5.32240        0.82860        3.53460
H          4.73220        3.25320        3.30320
H          3.84240        2.52810        4.64960
N          0.80690       -1.41010        1.06100
S          0.05950       -2.56200        0.16230
H          0.93450       -1.74530        2.01310
C         -1.68150       -2.18830        0.24020
C         -2.20450       -1.21600       -0.60100
C         -2.48150       -2.79620        1.20580
C         -3.52980       -0.81880       -0.44540
H         -1.57470       -0.75380       -1.36240
C         -3.80360       -2.39100        1.34340
H         -2.05960       -3.57550        1.84290
C         -4.35250       -1.38110        0.53550
H         -3.90720       -0.03670       -1.10290
H         -4.41720       -2.87120        2.10890
C         -5.79990       -0.92440        0.75820
C         -6.20920        0.18920       -0.21480
H         -5.57760        1.08400       -0.10130
H         -6.15320       -0.14050       -1.26330
H         -7.24900        0.49090       -0.01740
C         -5.93750       -0.38520        2.19420
H         -6.96740       -0.04080        2.37840
H         -5.70260       -1.15390        2.94490
H         -5.25710        0.46440        2.36010
C         -6.75000       -2.11880        0.55790
H         -6.65940       -2.52500       -0.46100
H         -6.53790       -2.93440        1.26470
H         -7.79530       -1.80730        0.71170
O          0.25180       -3.85910        0.80570
O          0.44850       -2.37350       -1.23650
C         -0.44820        1.36020        2.06270
C          1.46090        0.64470       -2.73880
C         -2.96570        2.85830       -1.96740
C         -0.65730        2.74740        2.68850
H         -0.00270        3.50990        2.24500
H         -0.45890        2.71260        3.77060
H         -1.69650        3.08740        2.56150
C         -3.51200        2.16990       -3.22020
H         -2.82790        2.28140       -4.07590
H         -4.47550        2.61340       -3.51370
H         -3.66680        1.09250       -3.05730
C         -2.69700        4.34630       -2.22460
H         -3.74250        2.79080       -1.18590
H         -1.91480        4.47130       -2.99050
H         -2.35310        4.85130       -1.30990
H         -3.60590        4.85640       -2.57960
C         -1.50640        0.39370        2.60420
H          0.53280        0.98310        2.38990
H         -2.51610        0.67410        2.26460
H         -1.50590        0.40760        3.70540
H         -1.31790       -0.63030        2.26950
C          2.19280        1.84170       -3.35460
H          1.50360        2.48780       -3.92130
H          2.97960        1.50190       -4.04660
H          2.66520        2.46370       -2.57770
C          0.85190       -0.27190       -3.80440
H          2.20350        0.04180       -2.22670
H          1.64610       -0.66020       -4.46130
H          0.12650        0.25250       -4.44610
H          0.35340       -1.12860       -3.32900
