13
ethyl_vinyl_ether
C        -2.440291       -0.300653       -0.000224
H        -2.479091       -1.391727       -0.001189
H        -3.372388        0.263751        0.000042
C        -1.274586        0.346110        0.000594
H        -1.228624        1.443989        0.001295
C         1.065595        0.532954       -0.000702
H         1.063522        1.189000        0.890134
H         1.063658        1.187181       -0.892861
C         2.288619       -0.356031        0.000302
H         2.297029       -1.000841       -0.890018
H         3.203508        0.253631       -0.000030
H         2.296670       -0.999318        0.891725
O        -0.085038       -0.284993        0.000135
