41
ethylvinylether_ncr_addn_TS
C         2.589856        1.788036        0.885031
H         2.710666        1.463746        1.921127
C         0.999134        2.582244       -0.675241
H         1.596516        3.438528       -1.035884
H         1.225705        1.710235       -1.311182
C        -0.477247        2.896562       -0.678836
H        -0.698684        3.761484       -0.037203
H        -1.045921        2.030380       -0.314480
C         3.575603        1.588035       -0.034964
H         3.546738        2.027139       -1.030387
H         4.528571        1.206839        0.330594
N         2.922886       -0.335628       -1.106635
H         3.893883       -0.636224       -1.266082
S         2.331615       -1.429238       -0.005098
C         0.605148       -0.991371        0.018380
C        -0.143458       -1.073581       -1.156888
C        -0.000991       -0.653002        1.218806
C        -1.502675       -0.799780       -1.113912
H         0.341563       -1.353714       -2.093638
C        -1.371083       -0.386959        1.245872
H         0.599690       -0.603933        2.128256
C        -2.149935       -0.455543        0.087071
H        -2.075768       -0.866688       -2.041182
H        -1.823766       -0.123635        2.201302
C        -3.660190       -0.182384        0.082513
C        -4.395286       -1.451800       -0.386929
H        -5.483880       -1.284745       -0.387255
H        -4.101890       -1.742684       -1.406350
H        -4.178434       -2.299852        0.280214
C        -4.183768        0.194024        1.474081
H        -5.266264        0.384958        1.423046
H        -4.025474       -0.614062        2.204197
H        -3.704568        1.107417        1.858597
C        -3.968824        0.979742       -0.879543
H        -3.465432        1.903719       -0.556586
H        -3.645974        0.761326       -1.908130
H        -5.052385        1.174642       -0.905429
O         2.862797       -1.234868        1.341221
O         2.462744       -2.739917       -0.633389
O         1.383276        2.280032        0.662592
H        -0.809177        3.125010       -1.701570
