50
f-benzenesulfonamide_prad
P        -0.804113        0.096886       -0.002373
C         0.437773        0.100332        1.177580
C         1.368815        1.208594        1.229810
C         0.759980       -1.063750        1.968882
C         2.699489        0.051201        2.867311
H         2.085336       -1.944853        3.413591
H         3.161683        2.012888        2.116333
F         3.780155        0.014304        3.663879
C         2.460857        1.176495        2.075706
C         1.854386       -1.069691        2.803004
H         0.130328       -1.953462        1.910290
H         1.224502        2.079967        0.586616
C        -1.982893       -1.238884        0.258525
C        -2.541914       -1.382703        1.538691
C        -3.900644       -3.183065        0.739407
C        -2.411823       -2.075844       -0.778158
C        -3.374514       -3.052211       -0.539458
C        -3.495773       -2.361162        1.787430
H        -2.224290       -0.723085        2.349600
H        -3.936944       -2.491361        2.776381
H        -3.713980       -3.719662       -1.332450
F        -4.818657       -4.115528        0.970438
H        -1.975058       -1.984176       -1.771574
C        -1.709398        1.674845       -0.079029
C        -1.620520        2.585228        0.983284
C        -3.292728        3.958574       -0.047796
C        -2.634118        1.914895       -1.107779
H        -0.933824        2.389936        1.809524
C        -3.427680        3.057938       -1.097821
C        -2.399623        3.736696        0.995864
F        -4.043790        5.054484       -0.034417
H        -2.331757        4.461165        1.808542
H        -4.152732        3.256678       -1.888203
H        -2.753218        1.197346       -1.923445
N        -0.366622        0.027578       -1.717529
S         0.785893       -0.991471       -2.382144
H        -0.447585        0.889481       -2.254533
C         2.332533       -0.508219       -1.657345
C         2.877372       -1.281480       -0.634496
C         2.962166        0.650999       -2.110977
C         4.065617       -0.878891       -0.036358
H         2.363471       -2.184273       -0.303937
C         4.145345        1.060213       -1.508534
H         2.534719        1.222127       -2.937289
C         4.673954        0.290653       -0.475474
H         4.512799       -1.443306        0.782213
H         4.669375        1.961442       -1.828979
O         0.812267       -0.648974       -3.791947
O         0.479439       -2.331402       -1.912985
F         5.796438        0.692159        0.109630
