34
f-benzenesulfonamide_ncr_addn_ts
C        -0.348851       -1.719370        1.626803
H        -0.870962       -1.158635        2.409599
C         1.089949       -1.375521        1.416747
H         1.170639       -0.273795        1.407673
H         1.657184       -1.683450        2.316159
C         1.743937       -1.937401        0.160148
H         1.780238       -3.039888        0.210996
H         1.112195       -1.690183       -0.710283
C         3.153534       -1.395254       -0.060786
H         3.788970       -1.663376        0.801109
H         3.113520       -0.292018       -0.073230
C         3.793677       -1.897143       -1.349433
H         4.807131       -1.490668       -1.482536
H         3.870495       -2.995920       -1.355716
H         3.196296       -1.604171       -2.227621
C        -1.077579       -2.605077        0.894499
H        -0.600358       -3.280011        0.182801
H        -2.103618       -2.828528        1.192727
N        -1.753116       -1.459015       -0.930429
H        -2.575852       -2.052821       -1.107551
S        -2.393328       -0.001116       -0.446095
C        -0.905312        0.945860       -0.208725
C         0.071913        0.964491       -1.204728
C        -0.763314        1.690457        0.958657
C         1.227372        1.711857       -1.012760
H        -0.067154        0.380875       -2.116070
C         0.388310        2.449890        1.151369
H        -1.549616        1.656208        1.714757
C         1.368729        2.440766        0.165634
H         2.020626        1.741044       -1.760887
H         0.539185        3.042053        2.054824
O        -3.085680       -0.073695        0.835288
O        -3.101740        0.513286       -1.611448
F         2.480145        3.145132        0.353165
