50
f-benzenesulfonamide_b-scission_ts
P        -1.050849       -0.042423        0.452089
C         0.204568       -0.555720       -0.759238
C         1.145362       -1.527027       -0.385269
C         0.246047       -0.026627       -2.051199
C         2.117484       -1.429845       -2.568063
H         1.266775       -0.044560       -3.970960
H         2.834456       -2.735394       -1.017968
F         3.046261       -1.837074       -3.428331
C         2.094454       -1.982076       -1.290914
C         1.210511       -0.455767       -2.962189
H        -0.473931        0.736384       -2.355258
H         1.137945       -1.925351        0.631768
C        -1.964941        1.366141       -0.230230
C        -3.059288        1.174634       -1.091013
C        -3.324760        3.546252       -1.294031
C        -1.557042        2.674134        0.072762
C        -2.238105        3.766324       -0.456761
C        -3.745384        2.261152       -1.621648
H        -3.383643        0.164949       -1.350639
H        -4.599313        2.126955       -2.287149
H        -1.931451        4.787601       -0.226464
F        -3.977527        4.588077       -1.801811
H        -0.691759        2.850624        0.715603
C        -2.267900       -1.417245        0.431551
C        -2.001762       -2.690019       -0.103077
C        -4.062849       -3.525354        0.798653
C        -3.454981       -1.238985        1.171748
H        -1.097228       -2.863375       -0.688796
C        -4.358223       -2.277380        1.344558
C        -2.895059       -3.743530        0.079809
F        -4.920670       -4.529271        0.973248
H        -2.700882       -4.731618       -0.340619
H        -5.285505       -2.140910        1.903170
H        -3.677560       -0.262531        1.612565
N        -0.021899        0.464041        1.722107
S         1.497887        1.585705        2.055178
H        -0.484031        0.489148        2.633160
C         2.852115        0.769351        1.244239
C         3.227333        1.176455       -0.035450
C         3.478708       -0.300107        1.883344
C         4.250405        0.500714       -0.691616
H         2.721720        2.023664       -0.501154
C         4.500078       -0.978840        1.228199
H         3.171828       -0.581902        2.892327
C         4.865649       -0.569709       -0.051407
H         4.573145        0.783189       -1.694528
H         5.022699       -1.815669        1.693762
O         1.696671        1.510783        3.503128
O         1.325548        2.882515        1.388970
F         5.829079       -1.231995       -0.685449
