53
me-benzenesulfonamide_prad
P        -0.800511        0.095610       -0.022764
C         0.468321        0.215942        1.122500
C         1.362225        1.353743        1.057439
C         0.842343       -0.861663        2.007425
C         2.775148        0.376990        2.740232
H         2.233159       -1.577597        3.481615
H         3.151642        2.282675        1.813893
F         3.897029        0.431690        3.485411
C         2.479077        1.424035        1.866453
C         1.960068       -0.766069        2.804246
H         0.233747       -1.766882        2.050136
H         1.170542        2.164291        0.350208
C        -1.913302       -1.271956        0.342005
C        -2.452295       -1.353549        1.636381
C        -3.725659       -3.270385        0.980550
C        -2.309076       -2.198597       -0.629543
C        -3.218615       -3.202996       -0.310763
C        -3.353360       -2.358374        1.964198
H        -2.162072       -0.623485        2.395580
H        -3.778970       -2.440828        2.965050
H        -3.530999       -3.940206       -1.051387
F        -4.593250       -4.229221        1.287476
H        -1.882859       -2.157072       -1.631144
C        -1.789506        1.625335       -0.130242
C        -1.700139        2.585462        0.886510
C        -3.479794        3.830497       -0.126774
C        -2.765814        1.775526       -1.127599
H        -0.968956        2.459812        1.687863
C        -3.613646        2.878903       -1.131245
C        -2.533929        3.698433        0.884759
F        -4.283177        4.889108       -0.127044
H        -2.467310        4.461451        1.661463
H        -4.379296        3.008471       -1.897360
H        -2.879966        1.018445       -1.907429
N        -0.411499       -0.002555       -1.740961
S         0.740045       -0.992579       -2.464134
H        -0.535485        0.851147       -2.283062
C         2.284255       -0.567559       -1.705544
C         2.782033       -1.370532       -0.681681
C         2.955826        0.581152       -2.116170
C         3.956531       -0.994586       -0.045057
H         2.241424       -2.269376       -0.384068
C         4.128168        0.944966       -1.460417
H         2.566336        1.179640       -2.941993
C         4.636885        0.174178       -0.408452
H         4.337925       -1.605203        0.776489
H         4.655077        1.851379       -1.768150
C         5.865202        0.590419        0.352927
O         0.759971       -0.561530       -3.850066
O         0.422619       -2.359280       -2.086017
H         6.265239        1.547272       -0.009014
H         6.659450       -0.166861        0.266132
H         5.626985        0.694336        1.422738
