37
me-benzenesulfonamide_ncr_addn_ts
C        -0.441197       -1.667037        1.644703
H        -0.927387       -1.062062        2.417519
C         1.011400       -1.402076        1.416428
H         1.145181       -0.306381        1.369828
H         1.569265       -1.709633        2.321895
C         1.626779       -2.035334        0.174500
H         1.609789       -3.136256        0.260159
H         1.001567       -1.783754       -0.699214
C         3.059129       -1.569991       -0.072715
H         3.686749       -1.836301        0.795662
H         3.068340       -0.467184       -0.126357
C         3.666933       -2.147827       -1.345118
H         4.697862       -1.795445       -1.498097
H         3.691722       -3.248529       -1.311550
H         3.078180       -1.858724       -2.230266
C        -1.221862       -2.527220        0.934535
H        -0.785468       -3.243000        0.236663
H        -2.255122       -2.691187        1.246095
N        -1.852274       -1.392889       -0.901524
H        -2.705649       -1.946623       -1.062955
S        -2.417610        0.104593       -0.439844
C        -0.885082        0.980603       -0.219401
C         0.091453        0.935573       -1.214932
C        -0.698797        1.732578        0.934163
C         1.281565        1.625050       -1.024144
H        -0.078878        0.349188       -2.119314
C         0.497716        2.427842        1.105786
H        -1.482738        1.753824        1.693247
C         1.507508        2.376471        0.139789
H         2.056018        1.580900       -1.794339
H         0.650019        3.015683        2.014237
O        -3.113452        0.082144        0.842001
O        -3.104554        0.631914       -1.612898
C         2.816941        3.092181        0.335559
H         3.642082        2.370160        0.441782
H         3.051867        3.731173       -0.528769
H         2.803406        3.723542        1.234207
