53
me-benzenesulfonamide_b-scission_ts
P        -1.054789        0.032075       -0.453569
C         0.219021        0.655033        0.685578
C         1.141108        1.597477        0.208238
C         0.280653        0.255271        2.022589
C         2.135820        1.726298        2.377587
H         1.320537        0.473448        3.919814
H         2.818222        2.882561        0.697078
F         3.072241        2.227679        3.184705
C         2.093422        2.150303        1.054171
C         1.247671        0.784016        2.876736
H        -0.423778       -0.485172        2.407807
H         1.118591        1.890583       -0.843450
C        -1.865176       -1.396376        0.314814
C        -2.890469       -1.225753        1.260849
C        -3.061941       -3.600935        1.514046
C        -1.444480       -2.694856       -0.008212
C        -2.044414       -3.799791        0.589525
C        -3.494823       -2.324689        1.860598
H        -3.225672       -0.222187        1.531237
H        -4.294814       -2.207379        2.592969
H        -1.727984       -4.814469        0.343737
F        -3.636509       -4.654767        2.087768
H        -0.636245       -2.854505       -0.725912
C        -2.338169        1.340192       -0.428855
C        -2.083262        2.664388       -0.026794
C        -4.242929        3.347468       -0.819350
C        -3.573170        1.058856       -1.051330
H        -1.141633        2.919035        0.463176
C        -4.528437        2.047771       -1.234110
C        -3.031102        3.666264       -0.220450
F        -5.153443        4.302885       -1.003634
H        -2.844871        4.692799        0.099540
H        -5.491087        1.831946       -1.700327
H        -3.791206        0.041468       -1.389477
N        -0.069599       -0.470216       -1.758380
S         1.455022       -1.565269       -2.178181
H        -0.565022       -0.481431       -2.651775
C         2.794391       -0.812256       -1.290462
C         3.062967       -1.226650        0.014020
C         3.510461        0.224160       -1.882022
C         4.060555       -0.580489        0.732215
H         2.496648       -2.052630        0.447307
C         4.510417        0.856542       -1.147335
H         3.288295        0.515626       -2.910363
C         4.792933        0.474547        0.169368
H         4.273296       -0.894899        1.757256
H         5.082442        1.666517       -1.607117
C         5.831583        1.191410        0.988956
O         1.659654       -1.380131       -3.615221
O         1.270184       -2.911089       -1.620797
H         5.356454        1.713208        1.834470
H         6.562016        0.484719        1.410733
H         6.379406        1.933809        0.392758
