44
methylenecyclopentane_ncr_addn_TS
C         2.274663        1.945794       -0.001319
C         3.503692        1.414944       -0.196863
H         4.031659        1.572823       -1.139616
H         4.052126        0.959090        0.630538
N         2.877326       -0.686639       -1.172856
H         3.872067       -0.949238       -1.209933
S         2.252351       -1.645568        0.028452
C         0.532633       -1.195835       -0.020368
C        -0.096393       -0.860000       -1.218654
C        -0.192043       -1.259337        1.163797
C        -1.450264       -0.550076       -1.208122
H         0.480146       -0.822805       -2.143929
C        -1.553411       -0.960580        1.152671
H         0.313797       -1.522378        2.094635
C        -2.208217       -0.585773       -0.025952
H        -1.923552       -0.266145       -2.150402
H        -2.097715       -1.007568        2.095331
C        -3.687526       -0.182806       -0.061335
C        -4.441772       -1.077958       -1.061151
H        -5.506884       -0.800174       -1.092324
H        -4.044790       -0.983000       -2.082375
H        -4.372473       -2.137052       -0.769845
C        -4.357344       -0.320911        1.311451
H        -5.416472       -0.032100        1.237054
H        -4.321768       -1.356882        1.681591
H        -3.890377        0.332689        2.063880
C        -3.783429        1.290114       -0.503133
H        -3.235617        1.944213        0.192881
H        -3.365034        1.443645       -1.508990
H        -4.835113        1.616341       -0.524752
O         2.755804       -1.309591        1.358142
O         2.404848       -3.016110       -0.446727
C         1.513597        1.935412        1.301887
H         1.977625        2.670486        1.983905
H         1.580411        0.956401        1.799849
C         1.424548        2.592838       -1.065482
H         1.997059        3.259913       -1.727013
H         1.017342        1.784453       -1.699729
C         0.090724        2.371439        0.925775
H        -0.501067        1.491698        0.632192
H        -0.441661        2.863718        1.752287
C         0.292462        3.281057       -0.292213
H         0.615829        4.284245        0.032942
H        -0.621172        3.408865       -0.890670
