16
methylene_cyclopentane
C         0.000000       -1.232366       -0.014208
C        -0.317741        0.697530       -1.417086
C         0.317741       -0.697530       -1.417086
H        -1.007729       -1.683564       -0.005050
H         0.699636       -2.006350        0.334284
H        -1.409478        0.607024       -1.546735
H         0.054316        1.346381       -2.223198
H        -0.054316       -1.346381       -2.223198
H         1.409478       -0.607024       -1.546735
C         0.000000        1.232366       -0.014208
H         1.007729        1.683564       -0.005050
H        -0.699636        2.006350        0.334284
C         0.000000        0.000000        0.875131
C         0.000000        0.000000        2.208229
H         0.019663       -0.933004        2.778383
H        -0.019663        0.933004        2.778383
