54
ome-benzenesulfonamide_b-scission_ts
P        -1.261770        0.043545       -0.446182
C         0.080707        0.549125        0.673658
C         1.054593        1.442049        0.202985
C         0.147523        0.098784        1.994158
C         2.105424        1.428329        2.348597
H         1.244780        0.180317        3.869875
H         2.831665        2.589804        0.690496
F         3.092977        1.836912        3.150262
C         2.063286        1.899809        1.041385
C         1.168958        0.530565        2.839644
H        -0.597517       -0.604261        2.372928
H         1.028388        1.773258       -0.837292
C        -2.179836       -1.308503        0.338477
C        -3.205125       -1.052752        1.265109
C        -3.537523       -3.406413        1.558547
C        -1.839416       -2.638429        0.048348
C        -2.519766       -3.689614        0.656346
C        -3.890260       -2.098019        1.874201
H        -3.475500       -0.024582        1.514166
H        -4.691463       -1.914075        2.591406
H        -2.265416       -4.727492        0.436751
F        -4.189236       -4.409086        2.141906
H        -1.028148       -2.864192       -0.647852
C        -2.423838        1.461393       -0.400540
C        -2.060529        2.750581        0.029535
C        -4.152445        3.628651       -0.752696
C        -3.675819        1.297506       -1.030495
H        -1.103129        2.915353        0.527140
C        -4.544839        2.366034       -1.194063
C        -2.920236        3.832537       -0.145802
F        -4.978809        4.660635       -0.919591
H        -2.649435        4.833270        0.194878
H        -5.520553        2.241089       -1.666268
H        -3.976269        0.309033       -1.390777
N        -0.344756       -0.532678       -1.763433
S         1.106263       -1.733912       -2.180561
H        -0.868406       -0.554431       -2.640432
C         2.534708       -0.974180       -1.464622
C         2.950636       -1.358490       -0.194548
C         3.179165        0.059634       -2.150905
C         4.018327       -0.702213        0.412359
H         2.437921       -2.176368        0.314365
C         4.239703        0.713837       -1.549482
H         2.845418        0.331528       -3.154201
C         4.658012        0.348832       -0.257735
H         4.330456       -1.007227        1.410634
H         4.769046        1.522923       -2.055111
O         1.207152       -1.679977       -3.639751
O         0.905956       -3.016070       -1.492626
O         5.664123        1.072958        0.259436
C         6.098574        0.807828        1.570337
H         6.900682        1.524333        1.782707
H         5.284735        0.952331        2.299519
H         6.500241       -0.215178        1.666345
