54
ome-benzenesulfonamide_prad
P         0.987829        0.090796        0.028248
C        -0.309121        0.124205       -1.089480
C        -1.242619        1.233130       -1.064675
C        -0.656934       -1.008349       -1.916396
C        -2.620176        0.142231       -2.705150
H        -2.028454       -1.832667       -3.351112
H        -3.064675        2.068912       -1.852914
F        -3.738304        0.132380       -3.463932
C        -2.361544        1.233626       -1.874336
C        -1.777309       -0.982639       -2.713651
H        -0.023810       -1.897587       -1.915926
H        -1.079456        2.075615       -0.388497
C         2.145605       -1.242429       -0.329826
C         2.674043       -1.320828       -1.628315
C         4.018863       -3.184732       -0.963263
C         2.580222       -2.144509        0.647679
C         3.520691       -3.120960        0.331709
C         3.606763       -2.297301       -1.953481
H         2.349144       -0.611439       -2.393140
H         4.025431       -2.377096       -2.957458
H         3.864295       -3.839224        1.077106
F         4.916257       -4.116591       -1.267598
H         2.161163       -2.105700        1.652341
C         1.920405        1.657489        0.070553
C         1.766988        2.590874       -0.963202
C         3.521836        3.925691       -0.023221
C         2.915511        1.866787        1.038147
H         1.020625        2.419798       -1.741808
C         3.718872        3.002060        0.996885
C         2.556534        3.734998       -1.006581
F         4.282639        5.014361       -0.066003
H         2.440252        4.477751       -1.796957
H         4.498402        3.177650        1.739445
H         3.080883        1.131220        1.829365
N         0.645232        0.009459        1.751357
S        -0.477648       -0.999181        2.498069
H         0.770817        0.866863        2.286747
C        -2.047441       -0.545520        1.831453
C        -2.613754       -1.321091        0.826383
C        -2.678707        0.617424        2.285145
C        -3.811562       -0.926833        0.240656
H        -2.108197       -2.227303        0.491522
C        -3.864731        1.016484        1.697152
H        -2.240001        1.197996        3.099095
C        -4.430714        0.258492        0.656187
H        -4.229868       -1.530409       -0.563218
H        -4.381416        1.921971        2.018010
O        -0.426172       -0.611926        3.895976
O        -0.177192       -2.351614        2.058644
O        -5.554742        0.749019        0.117221
C        -6.144433        0.080227       -0.973567
H        -7.020571        0.672877       -1.261420
H        -5.453307        0.016448       -1.829011
H        -6.477171       -0.933275       -0.692231
