38
ome-benzenesulfonamide_ncr_addn_ts
C         1.246885        1.714006        1.525534
H         1.612360        1.072895        2.334796
C        -0.237137        1.829648        1.396159
H        -0.657809        0.812556        1.488132
H        -0.624077        2.368315        2.282630
C        -0.759579        2.471724        0.116589
H        -0.451930        3.531078        0.065817
H        -0.289988        1.972363       -0.747919
C        -2.278452        2.379322       -0.004199
H        -2.747978        2.924559        0.832923
H        -2.578170        1.323825        0.117561
C        -2.809527        2.909835       -1.330261
H        -3.905972        2.835695       -1.387391
H        -2.539395        3.967768       -1.475014
H        -2.388897        2.344827       -2.177636
C         2.172180        2.266223        0.693178
H         1.889296        3.005263       -0.057489
H         3.231224        2.182616        0.944128
N         2.389274        0.845809       -1.028840
H         3.360440        1.110447       -1.246963
S         2.512344       -0.713276       -0.451777
C         0.804385       -1.091298       -0.154999
C        -0.145112       -0.835724       -1.139300
C         0.434901       -1.677495        1.056266
C        -1.485813       -1.124429       -0.903615
H         0.161063       -0.389070       -2.086801
C        -0.898014       -1.977123        1.292339
H         1.198866       -1.875211        1.810286
C        -1.870309       -1.689770        0.321106
H        -2.219804       -0.900650       -1.677138
H        -1.220952       -2.427125        2.232109
O         3.220637       -0.798676        0.820897
O         2.992295       -1.496029       -1.585135
C        -4.167953       -1.713244       -0.269389
H        -4.040948       -2.290558       -1.200954
H        -5.104366       -2.017553        0.212593
H        -4.225428       -0.639077       -0.516303
O        -3.140268       -1.979204        0.650050
