44
styrene_ncr_addn_ts
C         2.968075        1.763856        1.012704
H         3.262676        2.510780        0.274225
H         3.755961        1.315793        1.620450
N         3.230277        0.301654       -0.793450
H         4.261065        0.324014       -0.778266
S         2.861446       -1.227334       -0.234472
C         1.088675       -1.168784       -0.173203
C         0.358554       -0.715620       -1.266535
C         0.444521       -1.625850        0.972232
C        -1.030978       -0.695446       -1.195729
H         0.873100       -0.356532       -2.159029
C        -0.944733       -1.617599        1.017180
H         1.037130       -1.977060        1.818717
C        -1.713181       -1.147892       -0.058438
H        -1.582498       -0.311036       -2.052921
H        -1.435083       -1.990014        1.918235
C        -3.245389       -1.192627        0.014030
C        -3.687829       -2.660258       -0.140806
H        -4.785891       -2.737995       -0.097425
H        -3.351693       -3.072399       -1.104359
H        -3.270234       -3.291154        0.658428
C        -3.738175       -0.652427        1.368028
H        -4.838758       -0.645773        1.392793
H        -3.399432       -1.268108        2.213416
H        -3.385212        0.375648        1.533229
C        -3.895437       -0.357808       -1.097816
H        -3.554964        0.688503       -1.065695
H        -3.678562       -0.761205       -2.098059
H        -4.989121       -0.364649       -0.976253
O         3.356484       -1.452712        1.118849
O         3.279660       -2.122870       -1.306585
C         0.512391        2.115821        0.632096
C        -0.754233        2.100135        1.237688
C         0.623239        2.616667       -0.677550
C        -1.868256        2.603317        0.572410
H        -0.859890        1.691418        2.245835
C        -0.493787        3.102317       -1.347084
H         1.588072        2.580715       -1.186710
C        -1.742561        3.104426       -0.722702
H        -2.843126        2.604028        1.064944
H        -0.392559        3.477870       -2.367628
H        -2.618109        3.492718       -1.247851
C         1.665988        1.579662        1.352576
H         1.441600        0.933515        2.207041
