16
styrene
C         1.956796       -0.531810        0.000000
C         2.971014        0.337988       -0.000001
H         4.005550       -0.011384        0.000000
H         2.819342        1.420577       -0.000002
H         2.194720       -1.601548        0.000001
C         0.512739       -0.223294        0.000000
C        -0.407880       -1.281059        0.000000
C         0.011415        1.088223        0.000000
C        -1.780753       -1.043193        0.000000
H        -0.037580       -2.309802        0.000000
C        -1.358446        1.328623        0.000000
H         0.700060        1.935644        0.000001
C        -2.261737        0.264167        0.000000
H        -2.477565       -1.884253        0.000000
H        -1.726524        2.357060        0.000000
H        -3.336890        0.455830        0.000000
