17
vinyl_pyrrolidone
C         2.686986       -0.126524       -0.040664
H         3.654670       -0.630211       -0.041080
H         2.648188        0.960639       -0.076351
C         1.580821       -0.876192        0.001073
H         1.657476       -1.967481        0.034105
C        -0.170878        0.875878        0.014366
C        -0.846706       -1.386051        0.138767
C        -1.688346        0.861779        0.140006
C        -2.082406       -0.563213       -0.240853
H        -0.909230       -1.760271        1.177078
H        -0.696103       -2.254108       -0.520485
H        -1.936563        1.096549        1.188663
H        -2.129813        1.648545       -0.484881
H        -2.990748       -0.922189        0.260497
H        -2.250832       -0.628927       -1.326430
N         0.252044       -0.439193        0.002318
O         0.538977        1.852218       -0.037940
