45
vinylpyrrolidone_ncr_addn_ts
C         3.018907        1.382802        0.050415
H         3.650272        1.162918        0.913253
C         3.463857        1.099609       -1.202266
H         2.876365        1.328075       -2.087347
H         4.511651        0.822538       -1.319515
N         2.793530       -1.180078       -1.296965
H         3.759820       -1.530413       -1.296955
S         2.139890       -1.807596        0.085868
C         0.432994       -1.325351       -0.052434
C        -0.071326       -0.601391       -1.128808
C        -0.406318       -1.723810        0.985636
C        -1.421118       -0.262773       -1.144588
H         0.589858       -0.292978       -1.938198
C        -1.757314       -1.390819        0.943899
H        -0.006362       -2.295950        1.825325
C        -2.294540       -0.649070       -0.117584
H        -1.790525        0.321604       -1.989964
H        -2.393415       -1.719554        1.765273
C        -3.776609       -0.257413       -0.188619
C        -4.395492       -0.856504       -1.465011
H        -5.463151       -0.594580       -1.531124
H        -3.903157       -0.482262       -2.374466
H        -4.311028       -1.953808       -1.463841
C        -4.568958       -0.769987        1.020535
H        -5.622833       -0.467514        0.927891
H        -4.545782       -1.868098        1.089802
H        -4.188473       -0.355013        1.966550
C        -3.893830        1.277240       -0.227615
H        -3.453451        1.727580        0.675848
H        -3.386697        1.705620       -1.105161
H        -4.951515        1.579675       -0.276273
O         2.656171       -1.194429        1.312363
O         2.227613       -3.259263       -0.021702
C         1.312196        1.799526        1.785777
C        -0.365347        2.800536        0.376895
C        -0.201342        2.011925        1.673158
H         1.800849        2.605706        2.360512
H         1.579818        0.831712        2.232096
H        -0.287848        3.890020        0.532572
H        -1.299815        2.607258       -0.163287
H        -0.613818        2.521216        2.553665
H        -0.702784        1.037877        1.578568
N         1.765801        1.831015        0.395214
C         0.818786        2.374176       -0.468981
O         0.945115        2.495090       -1.663074
