62
b-scission_TS_b3lyp
C         1.998954       -0.992871        1.554000
C         2.787114       -0.009621        2.159457
C         3.937499        0.426590        1.506381
C         4.321053       -0.087667        0.250106
C         3.499248       -1.070616       -0.326616
C         2.346348       -1.528125        0.313710
H         2.503589        0.383376        3.137817
H         4.556063        1.182394        1.994975
H         3.749678       -1.500032       -1.295594
H         1.723914       -2.303411       -0.135164
S         0.507954       -1.551536        2.359165
O         0.613701       -1.302927        3.806861
O         0.232882       -2.907997        1.844724
N        -0.826276       -0.403266        1.798783
C         5.614284        0.409783       -0.420875
C         5.561222        1.944014       -0.604364
H         6.516777        2.307926       -1.015167
H         4.766210        2.223508       -1.310983
H         5.387696        2.472263        0.345415
C         6.813104        0.038011        0.481876
H         6.867553       -1.051550        0.633728
H         7.757272        0.367749        0.018535
H         6.742541        0.512414        1.472634
C         5.828809       -0.221252       -1.808365
H         5.932849       -1.315902       -1.751412
H         4.999858        0.019883       -2.491004
H         6.753991        0.174148       -2.255684
P        -1.696777        0.106501        0.360046
C        -2.819182        1.524182        0.241665
C        -2.365953        2.841692       -0.036980
C        -4.155369        1.368864        0.709487
C        -3.209382        3.939691        0.123704
H        -1.353086        3.008375       -0.406960
C        -5.000065        2.460743        0.853124
H        -4.531940        0.371510        0.952251
C        -4.517352        3.743077        0.564428
H        -2.871406        4.952870       -0.104278
C        -0.268062        0.523004       -0.695801
C         0.708420        1.399527       -0.189547
C        -0.129050        0.017223       -1.995749
C         1.792466        1.786424       -0.972385
H         0.628847        1.765169        0.835384
C         0.972027        0.373431       -2.780651
H        -0.874306       -0.671195       -2.399805
C         1.912188        1.254106       -2.254223
H         2.558881        2.459627       -0.589971
H         1.112953       -0.023659       -3.787355
C        -2.588497       -1.298166       -0.361738
C        -3.513389       -1.094469       -1.409141
C        -2.344048       -2.609910        0.089538
C        -4.192710       -2.169883       -1.978259
H        -3.708249       -0.085630       -1.778035
C        -3.018880       -3.689629       -0.481538
H        -1.620983       -2.798743        0.884077
C        -3.935016       -3.457395       -1.505346
H        -4.914782       -2.029805       -2.784821
H        -2.842589       -4.711449       -0.140359
F        -4.581218       -4.492594       -2.054961
F         2.985812        1.581041       -2.994751
H        -1.356306       -0.238135        2.658144
H        -6.031594        2.343206        1.191525
F        -5.330424        4.800203        0.718070
