62
b-scission_TS_m06
C        -2.502080       -1.312819       -0.662552
C        -3.242055       -1.187178       -1.846802
C        -4.514258       -0.643539       -1.791010
C        -5.083641       -0.198798       -0.582390
C        -4.317048       -0.337580        0.582887
C        -3.038278       -0.884357        0.556580
H        -2.817220       -1.540265       -2.790837
H        -5.089083       -0.569066       -2.720056
H        -4.724386       -0.027151        1.548343
H        -2.459113       -1.013515        1.475908
S        -0.826982       -1.813605       -0.738244
O        -0.615616       -2.637374       -1.935734
O        -0.387077       -2.267863        0.580919
N         0.244977       -0.316532       -1.015892
C        -6.488889        0.396354       -0.585427
C        -6.515606        1.630094       -1.493607
H        -7.525433        2.075324       -1.506871
H        -5.809393        2.398517       -1.136378
H        -6.247267        1.386428       -2.534190
C        -7.480614       -0.647484       -1.109406
H        -7.479197       -1.547624       -0.472035
H        -8.504404       -0.235253       -1.115404
H        -7.245282       -0.965402       -2.137865
C        -6.937808        0.822118        0.809058
H        -6.972495       -0.028747        1.509906
H        -6.278068        1.595625        1.236972
H        -7.953623        1.247781        0.759349
P         1.637672        0.171922       -0.174485
C         2.402331        1.739322       -0.594639
C         1.944345        2.953296       -0.029486
C         3.286844        1.808355       -1.699837
C         2.372669        4.175933       -0.528424
H         1.260832        2.936701        0.825456
C         3.723041        3.026899       -2.188614
H         3.640569        0.884957       -2.172328
C         3.257985        4.204109       -1.600066
H         2.038831        5.120307       -0.090282
C         1.008714        0.336092        1.516486
C        -0.264384        0.878992        1.723072
C         1.792071       -0.024759        2.615226
C        -0.747890        1.069807        3.011884
H        -0.888233        1.143869        0.862243
C         1.315464        0.155510        3.909967
H         2.780918       -0.469599        2.465767
C         0.051499        0.702211        4.088444
H        -1.738821        1.491984        3.200004
H         1.902407       -0.128992        4.786415
C         2.933167       -1.079369       -0.275702
C         4.226602       -0.795566        0.196800
C         2.664930       -2.344742       -0.819864
C         5.233391       -1.749242        0.123489
H         4.450814        0.190850        0.617352
C         3.668528       -3.303224       -0.893483
H         1.672118       -2.588525       -1.208761
C         4.937296       -2.995117       -0.419067
H         6.246285       -1.548576        0.481041
H         3.481883       -4.292095       -1.318984
F         5.893925       -3.910272       -0.486750
F        -0.407702        0.876719        5.319734
H         0.294935       -0.155652       -2.025243
H         4.420796        3.091549       -3.027661
F         3.669003        5.374790       -2.078984
