62
b-scission_TS_m062x
C         2.050622       -1.095429        1.477021
C         2.826589       -0.137997        2.130826
C         3.957313        0.354983        1.490874
C         4.328813       -0.080775        0.205989
C         3.518004       -1.035766       -0.421699
C         2.381329       -1.546493        0.202721
H         2.549802        0.183001        3.136552
H         4.575709        1.088075        2.012929
H         3.770420       -1.402569       -1.415895
H         1.763467       -2.306839       -0.277484
S         0.586176       -1.708431        2.254429
O         0.701690       -1.549484        3.702827
O         0.301565       -3.020627        1.665223
N        -0.833214       -0.493742        1.790730
C         5.603875        0.470051       -0.440914
C         5.510883        2.000386       -0.559516
H         6.457332        2.403522       -0.950545
H         4.709997        2.284350       -1.257281
H         5.319866        2.477791        0.412718
C         6.806302        0.093625        0.441136
H         6.881875       -0.998037        0.551632
H         7.738149        0.461728       -0.014280
H         6.725121        0.531612        1.446303
C         5.825223       -0.100527       -1.844634
H         5.947620       -1.193358       -1.824985
H         4.988007        0.150911       -2.512190
H         6.740252        0.331160       -2.275298
P        -1.690044        0.071220        0.433838
C        -2.817616        1.504908        0.352425
C        -2.390628        2.798596       -0.002749
C        -4.119510        1.348124        0.876558
C        -3.237838        3.894229        0.145321
H        -1.394489        2.954165       -0.419592
C        -4.973393        2.432054        1.010109
H        -4.465545        0.355121        1.176613
C        -4.517738        3.699124        0.646938
H        -2.924467        4.900063       -0.135637
C        -0.286206        0.543917       -0.620660
C         0.693587        1.386120       -0.074140
C        -0.167894        0.114257       -1.943836
C         1.764681        1.818983       -0.844684
H         0.618600        1.692594        0.971532
C         0.921205        0.515108       -2.719305
H        -0.920509       -0.549583       -2.374570
C         1.863820        1.362961       -2.155458
H         2.535286        2.473774       -0.438177
H         1.049260        0.181537       -3.748976
C        -2.605643       -1.271299       -0.362820
C        -3.555279       -1.004450       -1.364286
C        -2.339175       -2.600680       -0.002854
C        -4.240235       -2.043813       -1.983967
H        -3.765450        0.025575       -1.658921
C        -3.021190       -3.645247       -0.621524
H        -1.591014       -2.827425        0.759197
C        -3.961836       -3.352400       -1.600921
H        -4.984113       -1.860830       -2.759391
H        -2.831587       -4.684700       -0.353742
F        -4.613288       -4.348408       -2.194811
F         2.914077        1.739672       -2.888908
H        -1.361524       -0.467175        2.666462
H        -5.986130        2.320824        1.398234
F        -5.331459        4.744635        0.787180
