18
hexene_wb97xd
C        -2.037568       -0.199590        0.390690
H        -2.081890       -0.850134        1.274162
C        -0.771664        0.588818        0.223552
H        -0.854427        1.243278       -0.660560
H        -0.643822        1.256095        1.095335
C         0.472226       -0.295863        0.097092
H         0.539541       -0.960734        0.977069
H         0.353369       -0.961196       -0.775917
C         1.769788        0.497431       -0.036685
H         1.879867        1.161403        0.838502
H         1.696984        1.164530       -0.913249
C         3.005174       -0.386389       -0.167788
H         3.922784        0.213185       -0.262475
H         3.121831       -1.039833        0.711486
H         2.936781       -1.035890       -1.054935
C        -3.076123       -0.179929       -0.444299
H        -3.075466        0.450202       -1.339894
H        -3.966542       -0.787778       -0.264894
