18
hexene_m06
C        -2.023251       -0.217976        0.380518
H        -2.054324       -0.915507        1.231366
C        -0.766098        0.574589        0.237810
H        -0.851811        1.259051       -0.627189
H        -0.633658        1.222382        1.127567
C         0.473679       -0.297891        0.086642
H         0.542130       -0.993552        0.946745
H         0.357360       -0.945180       -0.804369
C         1.761695        0.498989       -0.023105
H         1.865425        1.143851        0.870586
H         1.683795        1.196543       -0.878894
C         2.989560       -0.376465       -0.177471
H         3.915023        0.215012       -0.255860
H         3.104309       -1.058371        0.682263
H         2.920474       -1.004754       -1.081691
C        -3.070467       -0.158432       -0.440856
H        -3.078465        0.519158       -1.303349
H        -3.960963       -0.775513       -0.288403
