18
hexene_m062x
C        -2.033216       -0.201630        0.392250
H        -2.076314       -0.856218        1.271447
C        -0.769887        0.590282        0.224757
H        -0.856215        1.240293       -0.661040
H        -0.638611        1.257071        1.095127
C         0.471685       -0.295882        0.097353
H         0.539802       -0.959035        0.977433
H         0.352248       -0.959497       -0.775649
C         1.766191        0.500171       -0.036763
H         1.874884        1.161918        0.838821
H         1.690884        1.165641       -0.912919
C         2.997991       -0.387879       -0.168568
H         3.917761        0.205694       -0.264126
H         3.108620       -1.040348        0.710570
H         2.922345       -1.036154       -1.054398
C        -3.068717       -0.179442       -0.445312
H        -3.062791        0.456930       -1.334871
H        -3.956900       -0.790021       -0.272699
