18
hexene_b3lpyd3
C        -2.043325       -0.198058        0.391499
H        -2.082634       -0.846902        1.277566
C        -0.774991        0.590171        0.220647
H        -0.856435        1.245568       -0.664311
H        -0.643295        1.259217        1.092794
C         0.474332       -0.296405        0.095074
H         0.540489       -0.962957        0.975349
H         0.357208       -0.962658       -0.778793
C         1.775718        0.499303       -0.036517
H         1.884111        1.164293        0.839967
H         1.703954        1.168313       -0.913576
C         3.014581       -0.387661       -0.166387
H         3.935135        0.210529       -0.259912
H         3.129625       -1.043021        0.713546
H         2.947018       -1.038665       -1.054342
C        -3.087358       -0.182186       -0.442338
H        -3.090948        0.445775       -1.340293
H        -3.977971       -0.790468       -0.259871
