46
NCR-addition_TS_b3lypd3
C        -2.392639        1.788779        0.460073
H        -1.989301        1.899205       -0.552171
C        -3.882092        1.804120        0.579770
H        -4.181207        1.692339        1.637035
H        -4.257837        2.792831        0.251303
C        -4.564975        0.721555       -0.278314
H        -4.251607        0.837357       -1.330239
H        -4.184220       -0.270974        0.015532
C        -6.091007        0.749029       -0.178821
H        -6.458649        1.744461       -0.489170
H        -6.390182        0.635518        0.879540
C        -6.762046       -0.335706       -1.022179
H        -7.859584       -0.298428       -0.933633
H        -6.506633       -0.224522       -2.089126
H        -6.433461       -1.341160       -0.710423
C        -1.526493        1.516765        1.477441
H        -1.871240        1.468962        2.513272
H        -0.446807        1.573366        1.326744
N        -1.453358       -0.729147        1.494106
H        -2.458516       -0.954750        1.559578
S        -0.993642       -1.332082       -0.006628
C         0.707360       -0.780476       -0.072618
C         1.649003       -1.363138        0.780914
C         1.078845        0.208691       -0.978910
C         2.968423       -0.924192        0.728571
H         1.342814       -2.151290        1.471120
C         2.410953        0.634756       -1.019133
H         0.329399        0.631155       -1.650596
C         3.381733        0.084305       -0.167458
H         3.695214       -1.383612        1.401553
H         2.679642        1.409113       -1.736927
C         4.854067        0.531292       -0.182259
C         5.750059       -0.680102       -0.528010
H         6.810057       -0.378498       -0.544910
H         5.646447       -1.492134        0.207348
H         5.494016       -1.088350       -1.518437
C         5.118459        1.637967       -1.218086
H         6.180796        1.926181       -1.190777
H         4.893315        1.302880       -2.242597
H         4.525077        2.542539       -1.011972
C         5.234260        1.074315        1.214302
H         4.606077        1.937890        1.484702
H         5.114578        0.312330        1.999149
H         6.287098        1.400258        1.223732
O        -1.717501       -0.718320       -1.133025
O        -1.013368       -2.795815        0.146271
