46
NCR-addition_TS_m062x
C        -3.027523       -1.641272        0.388247
H        -2.952535       -1.352159        1.441732
C        -4.397663       -1.694336       -0.206991
H        -4.337976       -1.963318       -1.274048
H        -4.969109       -2.498639        0.290503
C        -5.172989       -0.383311       -0.034870
H        -5.189568       -0.106438        1.032824
H        -4.636478        0.433312       -0.549111
C        -6.600185       -0.457586       -0.568172
H        -7.135551       -1.268300       -0.046416
H        -6.573726       -0.745480       -1.632331
C        -7.360204        0.853313       -0.405454
H        -8.385037        0.776813       -0.793894
H        -7.421952        1.143571        0.653908
H        -6.856424        1.670027       -0.943662
C        -1.878024       -1.844658       -0.297575
H        -1.889209       -2.158640       -1.343213
H        -0.916550       -1.868308        0.217866
N        -1.460359        0.320845       -0.892218
H        -2.428980        0.676504       -0.899125
S        -0.779053        1.047254        0.453531
C         0.927444        0.604003        0.252456
C         1.654679        1.162214       -0.798767
C         1.523285       -0.255805        1.163642
C         2.993642        0.826773       -0.937344
H         1.167912        1.852175       -1.489626
C         2.873268       -0.579588        1.009514
H         0.932595       -0.654584        1.989786
C         3.630806       -0.050160       -0.039963
H         3.560088        1.263095       -1.762038
H         3.329715       -1.254293        1.732255
C         5.112313       -0.381697       -0.239594
C         5.933544        0.916188       -0.164045
H         7.002474        0.694638       -0.303697
H         5.633430        1.633150       -0.941295
H         5.805456        1.402315        0.814181
C         5.633346       -1.348555        0.827093
H         6.696642       -1.559271        0.642851
H         5.546223       -0.922788        1.837482
H         5.092834       -2.306302        0.804604
C         5.301331       -1.031451       -1.620411
H         4.717175       -1.960205       -1.697907
H         4.983591       -0.361501       -2.431872
H         6.362521       -1.275440       -1.780206
O        -1.246085        0.463572        1.704799
O        -0.920492        2.479385        0.226811
