46
NCR-addition_TS_m06
C        -2.358553        1.673755        0.633568
H        -1.950996        1.891709       -0.363774
C        -3.840897        1.673678        0.753317
H        -4.136409        1.358666        1.773102
H        -4.211592        2.713737        0.641077
C        -4.533846        0.804227       -0.291371
H        -4.223470        1.129893       -1.303120
H        -4.162566       -0.234945       -0.216323
C        -6.047162        0.833525       -0.178060
H        -6.398789        1.879591       -0.267594
H        -6.342383        0.512965        0.839751
C        -6.731191       -0.036562       -1.213866
H        -7.827933       -0.008930       -1.120456
H        -6.476008        0.286809       -2.237034
H        -6.415230       -1.089114       -1.120641
C        -1.500628        1.343862        1.631600
H        -1.858733        1.198120        2.656062
H        -0.416869        1.420496        1.503705
N        -1.414229       -0.919844        1.504139
H        -2.425043       -1.127079        1.553970
S        -0.961899       -1.414462       -0.029079
C         0.704350       -0.807243       -0.086268
C         1.654630       -1.351190        0.777168
C         1.049473        0.177951       -1.000211
C         2.957089       -0.878810        0.724501
H         1.364361       -2.137523        1.479830
C         2.365832        0.637196       -1.041490
H         0.287347        0.573343       -1.677984
C         3.343063        0.123648       -0.182672
H         3.697438       -1.307896        1.407077
H         2.621733        1.411266       -1.768290
C         4.792561        0.602960       -0.200522
C         5.710701       -0.580117       -0.523689
H         6.763570       -0.250760       -0.548028
H         5.632511       -1.385189        0.224417
H         5.466303       -1.012428       -1.508477
C         5.028486        1.689373       -1.245116
H         6.084925        2.003437       -1.222057
H         4.814152        1.333878       -2.266837
H         4.415254        2.586163       -1.054971
C         5.152333        1.173895        1.174749
H         4.502005        2.027318        1.430716
H         5.053469        0.424513        1.976434
H         6.197055        1.529038        1.179466
O        -1.723022       -0.767706       -1.098693
O        -0.932172       -2.874503        0.043250
