46
NCR-addition_TS_wb97xd
C        -2.299889        1.705606        0.541476
H        -1.891342        1.860745       -0.463004
C        -3.786562        1.774103        0.669626
H        -4.083183        1.583261        1.715245
H        -4.115164        2.803968        0.436412
C        -4.516765        0.807109       -0.270509
H        -4.215161        1.012928       -1.311520
H        -4.172483       -0.222367       -0.077944
C        -6.035410        0.882106       -0.145684
H        -6.366572        1.915123       -0.351589
H        -6.325550        0.676162        0.899632
C        -6.758261       -0.084455       -1.076964
H        -7.850271       -0.011983       -0.965257
H        -6.513642        0.121950       -2.130687
H        -6.467402       -1.126339       -0.870390
C        -1.447384        1.374698        1.544692
H        -1.798224        1.286618        2.575708
H        -0.365717        1.406989        1.399607
N        -1.454860       -0.874899        1.461573
H        -2.467336       -1.061522        1.502859
S        -0.974906       -1.436792       -0.035708
C         0.696563       -0.838335       -0.091050
C         1.645699       -1.369322        0.782089
C         1.044538        0.141419       -1.010387
C         2.946037       -0.888017        0.735498
H         1.360840       -2.151440        1.487857
C         2.358265        0.610527       -1.045487
H         0.288925        0.526617       -1.697289
C         3.332957        0.112130       -0.174625
H         3.679965       -1.308389        1.426261
H         2.610261        1.378971       -1.775764
C         4.785517        0.606806       -0.182743
C         5.719192       -0.577138       -0.496512
H         6.767841       -0.241225       -0.514161
H         5.638015       -1.375635        0.255519
H         5.482807       -1.014326       -1.478548
C         5.019766        1.698861       -1.234007
H         6.070299        2.024467       -1.200974
H         4.818875        1.336540       -2.253687
H         4.393481        2.585364       -1.050945
C         5.128523        1.185851        1.202477
H         4.465850        2.028906        1.451175
H         5.030105        0.433683        1.998924
H         6.167262        1.551372        1.216245
O        -1.710961       -0.831227       -1.141388
O        -0.958624       -2.888669        0.095049
