62
p61_tbp_radical_m062x
C        -2.094600       -1.336000       -0.897100
C        -2.704100       -0.537700       -1.865600
C        -3.905800        0.087800       -1.562900
C        -4.531100       -0.081000       -0.312300
C        -3.908800       -0.913700        0.620800
C        -2.692200       -1.538400        0.337600
H        -2.230200       -0.397900       -2.839100
H        -4.369700        0.725300       -2.318100
H        -4.356600       -1.076200        1.600200
H        -2.193800       -2.170500        1.073200
S        -0.552500       -2.162500       -1.241000
O        -0.742500       -3.027300       -2.396900
O        -0.098100       -2.709200        0.030900
N         0.506500       -0.977700       -1.723100
C        -5.837600        0.658600       -0.010000
C        -5.559500        2.171300       -0.003300
H        -6.493000        2.728700        0.168400
H        -4.856900        2.425000        0.804600
H        -5.132100        2.510200       -0.958700
C        -6.880600        0.326500       -1.088800
H        -7.075900       -0.755300       -1.122000
H        -7.827200        0.842500       -0.868000
H        -6.552400        0.643600       -2.088700
C        -6.408600        0.272900        1.357600
H        -6.626200       -0.803900        1.415700
H        -5.714800        0.535100        2.169600
H        -7.348300        0.817300        1.529700
P         1.634000        0.108100       -0.709700
C         2.747300        1.635400       -0.542400
C         2.386500        2.821600        0.110000
C         3.954000        1.600200       -1.260300
C         3.222400        3.939100        0.068800
H         1.457100        2.880300        0.678600
C         4.800300        2.701000       -1.299600
H         4.240200        0.686200       -1.789500
C         4.416700        3.862200       -0.633300
H         2.964700        4.866700        0.580700
C         0.303000        0.555000        0.454800
C        -0.671000        1.453700       -0.003400
C         0.174100       -0.008500        1.725400
C        -1.756200        1.796000        0.792500
H        -0.591600        1.878200       -1.007700
C        -0.915700        0.321300        2.533500
H         0.904500       -0.739500        2.076700
C        -1.866500        1.207300        2.047400
H        -2.532000        2.477100        0.443300
H        -1.053300       -0.123100        3.519300
C         2.733200       -1.139400        0.043700
C         3.539500       -0.777800        1.134600
C         2.819400       -2.444300       -0.458600
C         4.407800       -1.695400        1.717400
H         3.492800        0.236800        1.535200
C         3.696300       -3.365700        0.105000
H         2.194400       -2.753400       -1.294600
C         4.474700       -2.979100        1.188400
H         5.035800       -1.433100        2.568600
H         3.777700       -4.383100       -0.276800
F         5.309000       -3.859600        1.734100
F        -2.941700        1.481000        2.789500
H         0.718500       -1.069100       -2.715200
H         5.747100        2.683800       -1.839900
F         5.218300        4.925700       -0.673800
