34
p61_m062x
P        -0.002494       -0.001357        1.468998
C         1.019424       -1.289924        0.634929
C         0.614928       -2.012253       -0.494329
C         2.284761       -1.548838        1.182230
C         1.454929       -2.962841       -1.072916
C         3.139534       -2.485163        0.608675
C         2.707375       -3.181792       -0.514047
H        -0.368641       -1.833728       -0.933372
H         2.608555       -1.005337        2.073422
H         1.155530       -3.536772       -1.950063
H         4.126867       -2.694649        1.020380
C        -1.627809       -0.239748        0.631480
C        -2.490992       -1.197331        1.184434
C        -2.045511        0.466088       -0.503752
C        -3.730942       -1.465382        0.611878
C        -3.289753        0.217960       -1.081081
C        -4.112719       -0.747529       -0.515529
H        -2.187234       -1.744243        2.080506
H        -1.394469        1.222176       -0.946789
H        -4.411363       -2.208611        1.027669
H        -3.633046        0.759987       -1.962349
C         0.604675        1.526419        0.633703
C         0.200109        2.752813        1.181221
C         1.432476        1.534716       -0.495725
C         0.588121        3.960273        0.608170
C         1.840322        2.736372       -1.073587
C         1.407149        3.931765       -0.514732
H        -0.431640        2.763393        2.072892
H         1.766396        0.592629       -0.934734
H         0.279694        4.921223        1.020335
H         2.487659        2.762271       -1.950370
F         1.795388        5.081870       -1.062791
F         3.513505       -4.088358       -1.063536
F        -5.301932       -0.988135       -1.064632
