34
p61_m06
P        -0.003083        0.002271        1.474949
C        -1.594908        0.409503        0.635827
C        -1.713283        1.228530       -0.492932
C        -2.756462       -0.157955        1.178513
C        -2.956839        1.470252       -1.072357
C        -4.003280        0.064195        0.604107
C        -4.084884        0.881415       -0.517222
H        -0.821698        1.686759       -0.934272
H        -2.681120       -0.791006        2.070734
H        -3.068490        2.108530       -1.952628
H        -4.917042       -0.374334        1.013133
C         1.147969        1.174788        0.635537
C         1.245820        2.462726        1.180978
C         1.912565        0.866027       -0.495532
C         2.063819        3.429022        0.605190
C         2.746213        1.818950       -1.075666
C         2.807270        3.089510       -0.518962
H         0.664040        2.715043        2.075555
H         1.858497       -0.134560       -0.937957
H         2.146807        4.438534        1.015698
H         3.352018        1.594783       -1.957467
C         0.440669       -1.580863        0.637303
C         1.527015       -2.290623        1.168138
C        -0.221521       -2.105337       -0.479084
C         1.960366       -3.480642        0.594250
C         0.192976       -3.303229       -1.057223
C         1.281588       -3.972504       -0.514297
H         2.047498       -1.898999        2.050267
H        -1.075401       -1.572479       -0.911438
H         2.807917       -4.042773        0.994387
H        -0.313617       -3.729148       -1.927104
F         1.680915       -5.114252       -1.063380
F        -5.272097        1.106260       -1.068767
F         3.599657        4.001658       -1.070359
