34
p61_wb97xd
P        -0.000645        0.000212        1.450964
C         0.971091        1.330450        0.625477
C         1.763593        1.140973       -0.513538
C         0.904990        2.613173        1.188847
C         2.464625        2.201761       -1.084157
C         1.588721        3.685698        0.624062
C         2.363574        3.461973       -0.508447
H         1.838617        0.150533       -0.967803
H         0.304828        2.779226        2.087851
H         3.087165        2.064098       -1.969599
H         1.539606        4.687449        1.053476
C         0.666332       -1.506340        0.625824
C         1.812217       -2.087918        1.187826
C         0.104903       -2.100220       -0.511484
C         2.400223       -3.215807        0.623162
C         0.674088       -3.237300       -1.081924
C         1.818043       -3.777161       -0.507759
H         2.257030       -1.649441        2.085522
H        -0.791994       -1.672049       -0.964453
H         3.293970       -3.672051        1.051387
H         0.242817       -3.709342       -1.966062
C        -1.638470        0.176077        0.625283
C        -2.716443       -0.521176        1.190003
C        -1.870619        0.955362       -0.514989
C        -3.987201       -0.465988        0.625266
C        -3.139836        1.031387       -1.085584
C        -4.180798        0.314999       -0.508554
H        -2.560220       -1.122442        2.090031
H        -1.050572        1.514725       -0.970568
H        -4.830256       -1.008469        1.055703
H        -3.331833        1.637951       -1.971998
F        -5.395542        0.381798       -1.051209
F         3.029326        4.480234       -1.051092
F         2.368029       -4.862368       -1.050349
