62
p61_tbp_radical_b3lypd3
C        -2.111700       -1.338700       -0.957600
C        -2.714100       -0.496400       -1.896900
C        -3.915300        0.129100       -1.575100
C        -4.549500       -0.075500       -0.330700
C        -3.933900       -0.954000        0.571300
C        -2.722000       -1.581400        0.268800
H        -2.234100       -0.318400       -2.861600
H        -4.365000        0.800400       -2.309800
H        -4.377900       -1.146500        1.546700
H        -2.234500       -2.240200        0.987900
S        -0.554000       -2.155900       -1.326100
O        -0.733300       -2.974800       -2.534300
O        -0.107500       -2.765400       -0.064400
N         0.513800       -0.926400       -1.743800
C        -5.848000        0.678400        0.005800
C        -5.548200        2.194600        0.056900
H        -6.472500        2.762100        0.252800
H        -4.836300        2.418100        0.866400
H        -5.122800        2.562100       -0.889700
C        -6.910900        0.393500       -1.078200
H        -7.128000       -0.684500       -1.141300
H        -7.849800        0.918900       -0.839600
H        -6.587400        0.730500       -2.074600
C        -6.421500        0.263800        1.372600
H        -6.667100       -0.809200        1.404300
H        -5.717700        0.484800        2.189700
H        -7.348400        0.823800        1.572100
P         1.659000        0.136000       -0.664500
C         2.775500        1.658500       -0.501500
C         2.378300        2.883700        0.066800
C         4.021000        1.599000       -1.162400
C         3.209200        4.006700        0.003100
H         1.423700        2.967700        0.588900
C         4.861500        2.707500       -1.222200
H         4.344500        0.661900       -1.625800
C         4.440400        3.904600       -0.638800
H         2.919900        4.958200        0.454200
C         0.310000        0.552100        0.502700
C        -0.669200        1.459200        0.060500
C         0.163900       -0.052700        1.757700
C        -1.766800        1.773500        0.856600
H        -0.588600        1.910000       -0.931400
C        -0.941200        0.244900        2.561800
H         0.891300       -0.790000        2.100200
C        -1.892300        1.145900        2.093500
H        -2.543100        2.457300        0.514400
H        -1.089600       -0.236400        3.529900
C         2.748000       -1.138200        0.072800
C         3.528700       -0.817100        1.200800
C         2.853500       -2.426900       -0.477600
C         4.387700       -1.756700        1.770100
H         3.468900        0.180100        1.641400
C         3.720600       -3.369300        0.074300
H         2.252600       -2.705700       -1.341000
C         4.473200       -3.023500        1.194300
H         4.993300       -1.523900        2.647800
H         3.813200       -4.372400       -0.345400
F         5.300800       -3.927700        1.731000
F        -2.985300        1.393900        2.835400
H         0.760900       -1.000000       -2.730000
H         5.835000        2.666600       -1.715000
F         5.240800        4.978000       -0.700200
