62
p61_tbp_radical_m06
C        -2.098600       -1.374300       -0.930500
C        -2.720300       -0.587500       -1.899600
C        -3.918300        0.041100       -1.593000
C        -4.528900       -0.107300       -0.333700
C        -3.895600       -0.931700        0.599800
C        -2.687900       -1.565000        0.310400
H        -2.257400       -0.463600       -2.883900
H        -4.391100        0.667400       -2.356600
H        -4.332200       -1.083700        1.589700
H        -2.188700       -2.197400        1.049300
S        -0.554000       -2.188400       -1.293600
O        -0.729200       -2.971700       -2.514800
O        -0.121800       -2.819500       -0.049200
N         0.526600       -0.967500       -1.684100
C        -5.824000        0.640000       -0.022100
C        -5.543600        2.146600       -0.032200
H        -6.473500        2.711400        0.152300
H        -4.827600        2.412000        0.764900
H        -5.129900        2.488400       -0.995500
C        -6.882300        0.302900       -1.076000
H        -7.086200       -0.780700       -1.098600
H        -7.828100        0.822300       -0.845800
H        -6.578600        0.608400       -2.090100
C        -6.380100        0.277400        1.352000
H        -6.613000       -0.797700        1.432500
H        -5.678700        0.544100        2.160300
H        -7.315100        0.832900        1.532200
P         1.637600        0.106500       -0.638500
C         2.719600        1.649400       -0.504200
C         2.318800        2.857300        0.086700
C         3.924900        1.627400       -1.228600
C         3.112400        3.998700       -0.013100
H         1.387300        2.911900        0.659000
C         4.729500        2.753300       -1.323600
H         4.242400        0.698400       -1.719200
C         4.307800        3.932400       -0.714500
H         2.823000        4.942500        0.456800
C         0.305700        0.530400        0.532600
C        -0.681200        1.414000        0.074500
C         0.192400       -0.015500        1.811800
C        -1.758600        1.759800        0.876900
H        -0.612100        1.828300       -0.938500
C        -0.894000        0.311100        2.623500
H         0.938400       -0.732300        2.169900
C        -1.856500        1.184300        2.138000
H        -2.543800        2.435300        0.527500
H        -1.017900       -0.121000        3.619700
C         2.758800       -1.129700        0.092600
C         3.570600       -0.772600        1.181200
C         2.869300       -2.422200       -0.436000
C         4.468600       -1.680000        1.730600
H         3.501800        0.233800        1.607500
C         3.773900       -3.332800        0.096400
H         2.239900       -2.724500       -1.275300
C         4.559800       -2.950500        1.175200
H         5.103800       -1.420500        2.581100
H         3.875400       -4.342400       -0.308500
F         5.421200       -3.818400        1.689100
F        -2.921300        1.463400        2.886500
H         0.740800       -1.007200       -2.681400
H         5.677900        2.743700       -1.867300
F         5.068100        5.018000       -0.810800
