34
p61_b3lypd3
P        -0.000190        0.000247        1.450282
C         0.432958       -1.599719        0.622372
C        -0.212049       -2.102560       -0.520600
C         1.475564       -2.354692        1.191202
C         0.174732       -3.320212       -1.087170
C         1.881220       -3.566005        0.629347
C         1.219966       -4.033801       -0.505377
H        -1.027521       -1.540064       -0.979854
H         1.981915       -1.989317        2.089383
H        -0.319479       -3.723825       -1.973104
H         2.691089       -4.158522        1.059232
C        -1.602279        0.424969        0.622171
C        -2.777719       -0.098042        1.192588
C        -1.714792        1.232542       -0.522546
C        -4.029514        0.156381        0.630623
C        -2.962615        1.506504       -1.089249
C        -4.103570        0.960556       -0.505824
H        -2.714785       -0.717309        2.092126
H        -0.819551        1.655388       -0.983020
H        -4.947858       -0.246822        1.061736
H        -3.064721        2.134499       -1.976509
C         1.168745        1.175145        0.622046
C         1.303135        2.454917        1.191871
C         1.925143        0.868212       -0.522028
C         2.149753        3.411502        0.629986
C         2.786631        1.811615       -1.088670
C         2.883946        3.072975       -0.505812
H         0.734877        2.710464        2.090982
H         1.844201       -0.118813       -0.981962
H         2.259515        4.408604        1.060708
H         3.382126        1.585600       -1.975420
F         3.706911        3.981997       -1.046350
F         1.596278       -5.200860       -1.045885
F        -5.302354        1.218274       -1.046443
