62
p61_tbp_radical_wb97xd
C        -2.097900       -1.363100       -0.924800
C        -2.691000       -0.531300       -1.874300
C        -3.882600        0.108600       -1.564500
C        -4.518500       -0.073700       -0.322600
C        -3.912300       -0.937100        0.592800
C        -2.708300       -1.578200        0.301600
H        -2.214300       -0.375300       -2.844200
H        -4.327400        0.769800       -2.311600
H        -4.363700       -1.113300        1.568500
H        -2.229500       -2.233700        1.029900
S        -0.569400       -2.209200       -1.287500
O        -0.772400       -3.019000       -2.481700
O        -0.136800       -2.820700       -0.037100
N         0.517100       -1.027700       -1.711400
C        -5.818100        0.680000       -0.010500
C        -5.526000        2.192100        0.007600
H        -6.452500        2.759500        0.188000
H        -4.818000        2.437500        0.813600
H        -5.099800        2.540200       -0.945500
C        -6.867600        0.364200       -1.091300
H        -7.072100       -0.716300       -1.135800
H        -7.812900        0.882800       -0.867200
H        -6.542700        0.686800       -2.091300
C        -6.395200        0.290600        1.356500
H        -6.635700       -0.782300        1.407900
H        -5.700100        0.532300        2.174400
H        -7.326000        0.848800        1.537700
P         1.618500        0.095100       -0.700300
C         2.709400        1.639800       -0.561300
C         2.351900        2.821800        0.100900
C         3.900800        1.623700       -1.305500
C         3.172000        3.949300        0.044800
H         1.434600        2.869000        0.690700
C         4.732100        2.735200       -1.361700
H         4.191900        0.715200       -1.842100
C         4.351600        3.890700       -0.684400
H         2.909600        4.870300        0.568000
C         0.297900        0.523300        0.482300
C        -0.676100        1.439200        0.060900
C         0.180400       -0.062800        1.743700
C        -1.740700        1.780100        0.883500
H        -0.611800        1.886300       -0.934300
C        -0.889800        0.262500        2.577000
H         0.909000       -0.805100        2.074200
C        -1.836400        1.173100        2.130100
H        -2.511000        2.478800        0.557100
H        -1.008900       -0.201200        3.557100
C         2.747800       -1.122700        0.058300
C         3.539400       -0.743000        1.153800
C         2.870900       -2.424900       -0.441000
C         4.425300       -1.638300        1.742700
H         3.467500        0.269800        1.556000
C         3.765000       -3.325500        0.128800
H         2.259800       -2.747900       -1.282200
C         4.527500       -2.921500        1.216900
H         5.040000       -1.354700        2.598100
H         3.868700       -4.340800       -0.255800
F         5.378800       -3.781200        1.770000
F        -2.885000        1.458500        2.905000
H         0.702000       -1.054500       -2.711000
H         5.666300        2.725200       -1.925400
F         5.139000        4.964400       -0.739800
